2 Te4                                   
   1.00000000000000     
     8.1191443696932524    0.0470267925546681   -0.0002385432756952
    -2.0094488085902507    3.4848295201696788   -0.0037733062958248
    -0.0369143025091247   -0.0718388685809009   46.8782962791986009
   Mn   Ag   Sb   Se
     1     1     4     8
Direct
  0.3333330000000032  0.3333330000000032  0.3333330000000032
  0.8333330000000032  0.3333330000000032  0.3333330000000032
  0.0015270036382148  0.0014010695111222  0.4074281844607915
  0.4977072317417261  0.9978757429083609  0.4044136760973776
  0.1689597682582707  0.6687912570916359  0.2622533239026263
  0.6651399963617820  0.6652659304888745  0.2592388155392124
  0.3313197782249677  0.3317370371824334  0.4387600123888074
  0.8377170820572940  0.3374382999908239  0.4394149412581804
  0.3353462217750388  0.3349289628175730  0.2279059876111919
  0.8289489179427124  0.3292277000091826  0.2272510587418189
  0.0084888613737131  0.0093964617474336  0.3005575560409649
  0.4861474191259871  0.9868735307524309  0.3007199298912451
  0.1805195808740097  0.6797934692475659  0.3659470701087588
  0.6581781386262837  0.6572705382525632  0.3661094439590390
 
  0.00000000E+00  0.00000000E+00  0.00000000E+00
  0.00000000E+00  0.00000000E+00  0.00000000E+00
  0.00000000E+00  0.00000000E+00  0.00000000E+00
  0.00000000E+00  0.00000000E+00  0.00000000E+00
  0.00000000E+00  0.00000000E+00  0.00000000E+00
  0.00000000E+00  0.00000000E+00  0.00000000E+00
  0.00000000E+00  0.00000000E+00  0.00000000E+00
  0.00000000E+00  0.00000000E+00  0.00000000E+00
  0.00000000E+00  0.00000000E+00  0.00000000E+00
  0.00000000E+00  0.00000000E+00  0.00000000E+00
  0.00000000E+00  0.00000000E+00  0.00000000E+00
  0.00000000E+00  0.00000000E+00  0.00000000E+00
  0.00000000E+00  0.00000000E+00  0.00000000E+00
  0.00000000E+00  0.00000000E+00  0.00000000E+00
