2 Te4                                   
   1.00000000000000     
     7.8885535133769888   -0.0211538681025697   -0.0020176469705206
    -1.9812677996280688    3.4165838602853356   -0.0017471421991953
     0.0778129369969580    0.0202065782802927   49.4535048525546728
   Mn   Sc   Sb   S 
     1     1     4     8
Direct
  0.3333330000000032  0.3333330000000032  0.3333330000000032
  0.8333330000000032  0.3333330000000032  0.3333330000000032
  0.9934078595140579  0.9948604370320094  0.4008858953841896
  0.4915992259616703  0.9906318788943077  0.4052918619114974
  0.1750677740383265  0.6760351211056891  0.2613751380885065
  0.6732591404859389  0.6718065629679874  0.2657811046158143
  0.3379261338145371  0.3372911951693367  0.4317222782047495
  0.8326221750506076  0.3330899017616701  0.4294429920179829
  0.3287398661854694  0.3293748048306697  0.2349437217952498
  0.8340438249493988  0.3335760982383363  0.2372230079820163
  0.9870603813320935  0.9872110531859327  0.3038193689320443
  0.5019765016315565  0.0009682672905220  0.3052837163211377
  0.1646904983684402  0.6656987327094819  0.3613832836788662
  0.6796066186679033  0.6794559468140641  0.3628476310679596
 
  0.00000000E+00  0.00000000E+00  0.00000000E+00
  0.00000000E+00  0.00000000E+00  0.00000000E+00
  0.00000000E+00  0.00000000E+00  0.00000000E+00
  0.00000000E+00  0.00000000E+00  0.00000000E+00
  0.00000000E+00  0.00000000E+00  0.00000000E+00
  0.00000000E+00  0.00000000E+00  0.00000000E+00
  0.00000000E+00  0.00000000E+00  0.00000000E+00
  0.00000000E+00  0.00000000E+00  0.00000000E+00
  0.00000000E+00  0.00000000E+00  0.00000000E+00
  0.00000000E+00  0.00000000E+00  0.00000000E+00
  0.00000000E+00  0.00000000E+00  0.00000000E+00
  0.00000000E+00  0.00000000E+00  0.00000000E+00
  0.00000000E+00  0.00000000E+00  0.00000000E+00
  0.00000000E+00  0.00000000E+00  0.00000000E+00
