2 Te4                                   
   1.00000000000000     
     8.5270729812598294   -0.0216293154395685   -0.0051756003436448
    -2.1411375927096787    3.7072076810503214   -0.0002779853756134
    -0.0357759151649163   -0.0241939815187087   42.1600485677047345
   Mn   Cd   Sn   Te
     1     1     4     8
Direct
  0.3333330000000032  0.3333330000000032  0.3333330000000032
  0.8333330000000032  0.3333330000000032  0.3333330000000032
  0.9996903474039691  0.9998250963926884  0.4227704778275042
  0.4993008019134049  0.9992496110806178  0.4231108007915582
  0.1673661980865918  0.6674173889193790  0.2435561992084457
  0.6669766525960277  0.6668419036073084  0.2438965221724997
  0.3338978675864694  0.3336816641831440  0.4624488241506498
  0.8333312220911721  0.3334217405163543  0.4623159403585709
  0.3327681324135370  0.3329843358168624  0.2042171758493495
  0.8333347779088344  0.3332442594836521  0.2043500596414284
  0.0110617010024854  0.0111165019056900  0.2930355479012929
  0.4901730944342815  0.9900086039529157  0.2945633651733104
  0.1764939055657151  0.6766583960470811  0.3721036348266935
  0.6556052989975112  0.6555504980943070  0.3736314520987110
 
  0.00000000E+00  0.00000000E+00  0.00000000E+00
  0.00000000E+00  0.00000000E+00  0.00000000E+00
  0.00000000E+00  0.00000000E+00  0.00000000E+00
  0.00000000E+00  0.00000000E+00  0.00000000E+00
  0.00000000E+00  0.00000000E+00  0.00000000E+00
  0.00000000E+00  0.00000000E+00  0.00000000E+00
  0.00000000E+00  0.00000000E+00  0.00000000E+00
  0.00000000E+00  0.00000000E+00  0.00000000E+00
  0.00000000E+00  0.00000000E+00  0.00000000E+00
  0.00000000E+00  0.00000000E+00  0.00000000E+00
  0.00000000E+00  0.00000000E+00  0.00000000E+00
  0.00000000E+00  0.00000000E+00  0.00000000E+00
  0.00000000E+00  0.00000000E+00  0.00000000E+00
  0.00000000E+00  0.00000000E+00  0.00000000E+00
