2 Te4                                   
   1.00000000000000     
     8.8331407664572676    0.0450397063499978   -0.0104105867273027
    -2.1887800335749907    3.7898066826038943   -0.0003406334225657
    -0.0400785503654813   -0.0260040853123017   39.6371502643833651
   Mn   Mo   Bi   Te
     1     1     4     8
Direct
  0.3333330000000032  0.3333330000000032  0.3333330000000032
  0.8333330000000032  0.3333330000000032  0.3333330000000032
  0.9971201138235001  0.9971586569577779  0.4278331986630926
  0.4934452051959322  0.9934503218596471  0.4284932957990058
  0.1732217948040648  0.6732166781403497  0.2381737042009980
  0.6695468861764967  0.6695083430422188  0.2388338013369113
  0.3318507272652403  0.3318641397514250  0.4713999427216084
  0.8377267006670968  0.3376502769682878  0.4713971570073304
  0.3348152727347661  0.3348018602485814  0.1952660572783909
  0.8289392993329097  0.3290157230317186  0.1952688429926689
  0.9948999707872028  0.9948692391239430  0.2951276423334430
  0.4956060351746073  0.9956191424917048  0.2935031333462582
  0.1710609648253894  0.6710478575082920  0.3731638666537457
  0.6717670292127940  0.6717977608760538  0.3715393576665609
 
  0.00000000E+00  0.00000000E+00  0.00000000E+00
  0.00000000E+00  0.00000000E+00  0.00000000E+00
  0.00000000E+00  0.00000000E+00  0.00000000E+00
  0.00000000E+00  0.00000000E+00  0.00000000E+00
  0.00000000E+00  0.00000000E+00  0.00000000E+00
  0.00000000E+00  0.00000000E+00  0.00000000E+00
  0.00000000E+00  0.00000000E+00  0.00000000E+00
  0.00000000E+00  0.00000000E+00  0.00000000E+00
  0.00000000E+00  0.00000000E+00  0.00000000E+00
  0.00000000E+00  0.00000000E+00  0.00000000E+00
  0.00000000E+00  0.00000000E+00  0.00000000E+00
  0.00000000E+00  0.00000000E+00  0.00000000E+00
  0.00000000E+00  0.00000000E+00  0.00000000E+00
  0.00000000E+00  0.00000000E+00  0.00000000E+00
