2 Te4                                   
   1.00000000000000     
     7.7820817904503556    0.0184764346138200   -0.0071393733011283
    -1.9375208521838767    3.3558741676440844    0.0000055858666938
    -0.1136238007380803   -0.0655444704955108   50.8880456991558177
   Mn   Pd   Pb   S 
     1     1     4     8
Direct
  0.3333330000000032  0.3333330000000032  0.3333330000000032
  0.8333330000000032  0.3333330000000032  0.3333330000000032
  0.0018112938365528  0.0018109281751892  0.4012096894311910
  0.5040701944797492  0.0040690397950012  0.4004823699430802
  0.1625968055202475  0.6625979602049956  0.2661846300569237
  0.6648557061634440  0.6648560718248074  0.2654573105688129
  0.3402066810027231  0.3402073411377344  0.4297420445512092
  0.8318115689949885  0.3318118345570199  0.4305151317265561
  0.3264593189972833  0.3264586588622720  0.2369239554487901
  0.8348544310050179  0.3348541654429865  0.2361508682734432
  0.9814774035104641  0.9814771212140138  0.3102899284070305
  0.5190230456749712  0.0190218877183013  0.3086868049021778
  0.1476439543250257  0.6476451122816954  0.3579801950978261
  0.6851895964895327  0.6851898787859830  0.3563770715929734
 
  0.00000000E+00  0.00000000E+00  0.00000000E+00
  0.00000000E+00  0.00000000E+00  0.00000000E+00
  0.00000000E+00  0.00000000E+00  0.00000000E+00
  0.00000000E+00  0.00000000E+00  0.00000000E+00
  0.00000000E+00  0.00000000E+00  0.00000000E+00
  0.00000000E+00  0.00000000E+00  0.00000000E+00
  0.00000000E+00  0.00000000E+00  0.00000000E+00
  0.00000000E+00  0.00000000E+00  0.00000000E+00
  0.00000000E+00  0.00000000E+00  0.00000000E+00
  0.00000000E+00  0.00000000E+00  0.00000000E+00
  0.00000000E+00  0.00000000E+00  0.00000000E+00
  0.00000000E+00  0.00000000E+00  0.00000000E+00
  0.00000000E+00  0.00000000E+00  0.00000000E+00
  0.00000000E+00  0.00000000E+00  0.00000000E+00
