2 Te4                                   
   1.00000000000000     
     8.1346500554435313    0.0019166010085011   -0.0113949038859656
    -2.0328335201237313    3.5209866897740922    0.0000100591104952
    -0.0376235408304291   -0.0215859579633926   46.4567988594525261
   Mn   Tc   Sb   Se
     1     1     4     8
Direct
  0.3333330000000032  0.3333330000000032  0.3333330000000032
  0.8333330000000032  0.3333330000000032  0.3333330000000032
  0.0017318120553446  0.0017318537776651  0.4091766597564204
  0.4974658108905977  0.9974659492936799  0.4083480649686667
  0.1692011891093991  0.6692010507063169  0.2583189350313372
  0.6649351879446451  0.6649351462223317  0.2574903402435835
  0.3301889010733033  0.3301889655198144  0.4417107271526991
  0.8363807177448525  0.3363807176623047  0.4416137329873830
  0.3364770989267031  0.3364770344801920  0.2249552728473002
  0.8302852822551540  0.3302852823377017  0.2250522670126164
  0.0070362082443442  0.0070353273961331  0.3000304311112849
  0.4939662670438572  0.9939652071439146  0.3004785507199546
  0.1727007329561396  0.6727017928560822  0.3661884492800493
  0.6596307917556526  0.6596316726038638  0.3666365688887190
 
  0.00000000E+00  0.00000000E+00  0.00000000E+00
  0.00000000E+00  0.00000000E+00  0.00000000E+00
  0.00000000E+00  0.00000000E+00  0.00000000E+00
  0.00000000E+00  0.00000000E+00  0.00000000E+00
  0.00000000E+00  0.00000000E+00  0.00000000E+00
  0.00000000E+00  0.00000000E+00  0.00000000E+00
  0.00000000E+00  0.00000000E+00  0.00000000E+00
  0.00000000E+00  0.00000000E+00  0.00000000E+00
  0.00000000E+00  0.00000000E+00  0.00000000E+00
  0.00000000E+00  0.00000000E+00  0.00000000E+00
  0.00000000E+00  0.00000000E+00  0.00000000E+00
  0.00000000E+00  0.00000000E+00  0.00000000E+00
  0.00000000E+00  0.00000000E+00  0.00000000E+00
  0.00000000E+00  0.00000000E+00  0.00000000E+00
