2 Te4                                   
   1.00000000000000     
     8.6156459068240103   -0.0154649540163890   -0.0197611203995441
    -2.1606137026142109    3.7398531551313248   -0.0003409589431230
    -0.1039560896932214   -0.0631880715574795   41.3449637022960061
   Mn   Sc   Pb   Te
     1     1     4     8
Direct
  0.3333330000000032  0.3333330000000032  0.3333330000000032
  0.8333330000000032  0.3333330000000032  0.3333330000000032
  0.0003536986209229  0.0003167320274029  0.4318222244788868
  0.4965317591182073  0.9965221073144221  0.4339920813325558
  0.1701352408817895  0.6701448926855746  0.2326749186674481
  0.6663133013790740  0.6663502679725940  0.2348447755211171
  0.3296700942182463  0.3296918214441373  0.4758368294398136
  0.8371177861933979  0.3370878866739138  0.4744893714993063
  0.3369959057817601  0.3369741785558691  0.1908291705601857
  0.8295482138066085  0.3295781133260926  0.1921766285006929
  0.0016610616820637  0.0015907219270633  0.2938226785733124
  0.4932068487009000  0.9931980581232208  0.2952516316267302
  0.1734601512990968  0.6734689418767760  0.3714153683732737
  0.6650059383179331  0.6650762780729335  0.3728443214266915
 
  0.00000000E+00  0.00000000E+00  0.00000000E+00
  0.00000000E+00  0.00000000E+00  0.00000000E+00
  0.00000000E+00  0.00000000E+00  0.00000000E+00
  0.00000000E+00  0.00000000E+00  0.00000000E+00
  0.00000000E+00  0.00000000E+00  0.00000000E+00
  0.00000000E+00  0.00000000E+00  0.00000000E+00
  0.00000000E+00  0.00000000E+00  0.00000000E+00
  0.00000000E+00  0.00000000E+00  0.00000000E+00
  0.00000000E+00  0.00000000E+00  0.00000000E+00
  0.00000000E+00  0.00000000E+00  0.00000000E+00
  0.00000000E+00  0.00000000E+00  0.00000000E+00
  0.00000000E+00  0.00000000E+00  0.00000000E+00
  0.00000000E+00  0.00000000E+00  0.00000000E+00
  0.00000000E+00  0.00000000E+00  0.00000000E+00
