2 Te4                                   
   1.00000000000000     
     7.7054251900686390   -0.0825893179024071    0.0468154096629876
    -1.9635825959629392    3.4723520081091976   -0.0285844672833902
     0.4487975383612990   -0.2123657648874930   50.0452978190197442
   Mn   Rh   Sb   S 
     1     1     4     8
Direct
  0.3333330000000032  0.3333330000000032  0.3333330000000032
  0.8333330000000032  0.3333330000000032  0.3333330000000032
  0.0079870467475253 -0.0122271247262856  0.3973284544036239
  0.5144042684980059  0.0496423756129506  0.3969864473913208
  0.1522627315019914  0.6170246243870461  0.2696805526086831
  0.6586799532524711  0.6788941247262825  0.2693385455963800
  0.3305191699770696  0.2930299315296647  0.4257387160451048
  0.8266194876300320  0.3636624702441482  0.4258647774748858
  0.3361468300229368  0.3736360684703417  0.2409272839548947
  0.8400465123699744  0.3030035297558583  0.2408012225251134
  0.0009946560070429  0.0625017197273205  0.3070050662107434
  0.5243613359887519  0.0013400090291380  0.3076470731176047
  0.1423056640112444  0.6653269909708591  0.3590199268823992
  0.6656723439929466  0.6041652802726759  0.3596619337892605
 
  0.00000000E+00  0.00000000E+00  0.00000000E+00
  0.00000000E+00  0.00000000E+00  0.00000000E+00
  0.00000000E+00  0.00000000E+00  0.00000000E+00
  0.00000000E+00  0.00000000E+00  0.00000000E+00
  0.00000000E+00  0.00000000E+00  0.00000000E+00
  0.00000000E+00  0.00000000E+00  0.00000000E+00
  0.00000000E+00  0.00000000E+00  0.00000000E+00
  0.00000000E+00  0.00000000E+00  0.00000000E+00
  0.00000000E+00  0.00000000E+00  0.00000000E+00
  0.00000000E+00  0.00000000E+00  0.00000000E+00
  0.00000000E+00  0.00000000E+00  0.00000000E+00
  0.00000000E+00  0.00000000E+00  0.00000000E+00
  0.00000000E+00  0.00000000E+00  0.00000000E+00
  0.00000000E+00  0.00000000E+00  0.00000000E+00
