2 Te4                                   
   1.00000000000000     
     8.5779173228576919   -0.0048290554244668   -0.0199860726035209
    -2.1465802364993376    3.7174722771615625   -0.0012127361004680
    -0.1267546968356367   -0.0858066215039570   41.7471784312178187
   Mn   Cr   Pb   Te
     1     1     4     8
Direct
  0.3333330000000032  0.3333330000000032  0.3333330000000032
  0.8333330000000032  0.3333330000000032  0.3333330000000032
  0.9979690540921985  0.9978121799268486  0.4292729839384264
  0.4995400991317763 -0.0006576350658345  0.4291229776104319
  0.1671269008682205  0.6673246350658313  0.2375440223895720
  0.6686979459077983  0.6688548200731482  0.2373940160615775
  0.3346658608437200  0.3347046388444026  0.4709359348327919
  0.8329811500262680  0.3330433323982684  0.4713241454225676
  0.3320001391562864  0.3319613611556038  0.1957300651672073
  0.8336848499737384  0.3336226676017309  0.1953418545774317
  0.9925920805161702  0.9923921031486368  0.2984105891969885
  0.5055973765808048  0.0055213441478811  0.2979896775956135
  0.1610696234191920  0.6611456558521157  0.3686773224043904
  0.6740749194838266  0.6742748968513600  0.3682564108030154
 
  0.00000000E+00  0.00000000E+00  0.00000000E+00
  0.00000000E+00  0.00000000E+00  0.00000000E+00
  0.00000000E+00  0.00000000E+00  0.00000000E+00
  0.00000000E+00  0.00000000E+00  0.00000000E+00
  0.00000000E+00  0.00000000E+00  0.00000000E+00
  0.00000000E+00  0.00000000E+00  0.00000000E+00
  0.00000000E+00  0.00000000E+00  0.00000000E+00
  0.00000000E+00  0.00000000E+00  0.00000000E+00
  0.00000000E+00  0.00000000E+00  0.00000000E+00
  0.00000000E+00  0.00000000E+00  0.00000000E+00
  0.00000000E+00  0.00000000E+00  0.00000000E+00
  0.00000000E+00  0.00000000E+00  0.00000000E+00
  0.00000000E+00  0.00000000E+00  0.00000000E+00
  0.00000000E+00  0.00000000E+00  0.00000000E+00
