2 Te4                                   
   1.00000000000000     
     8.7155123915747552   -0.0368650987572987    0.0024251019063983
    -2.1948559805587471    3.7951865203352808   -0.0006491864908709
     0.0223596723232872    0.0063421698774110   40.3318974494309401
   Mn   Fe   Bi   Te
     1     1     4     8
Direct
  0.3333330000000032  0.3333330000000032  0.3333330000000032
  0.8333330000000032  0.3333330000000032  0.3333330000000032
  0.0001336504958214  0.9998477552715178  0.4258726751214987
  0.5026836473428212  0.0019826558796955  0.4250089213295623
  0.1639833526571757  0.6646843441203009  0.2416580786704346
  0.6665333495041753  0.6668192447284790  0.2407943248785052
  0.3351359318904384  0.3355379689493904  0.4684874550954500
  0.8306742605377787  0.3306662222893088  0.4689934249719018
  0.3315300681095680  0.3311280310506160  0.1981785449045494
  0.8359917394622277  0.3359997777106976  0.1976725750280976
  0.9965288002960793  0.9948739658272264  0.2953306897864308
  0.5089072783917539  0.0089065513083928  0.2951226985928438
  0.1577597216082428  0.6577604486916039  0.3715443014071600
  0.6701381997039246  0.6717930341727704  0.3713363102135731
 
  0.00000000E+00  0.00000000E+00  0.00000000E+00
  0.00000000E+00  0.00000000E+00  0.00000000E+00
  0.00000000E+00  0.00000000E+00  0.00000000E+00
  0.00000000E+00  0.00000000E+00  0.00000000E+00
  0.00000000E+00  0.00000000E+00  0.00000000E+00
  0.00000000E+00  0.00000000E+00  0.00000000E+00
  0.00000000E+00  0.00000000E+00  0.00000000E+00
  0.00000000E+00  0.00000000E+00  0.00000000E+00
  0.00000000E+00  0.00000000E+00  0.00000000E+00
  0.00000000E+00  0.00000000E+00  0.00000000E+00
  0.00000000E+00  0.00000000E+00  0.00000000E+00
  0.00000000E+00  0.00000000E+00  0.00000000E+00
  0.00000000E+00  0.00000000E+00  0.00000000E+00
  0.00000000E+00  0.00000000E+00  0.00000000E+00
