2 Te4                                   
   1.00000000000000     
     7.4979232700815412    0.0390845375839341    0.2082858413884279
    -1.8575567288140062    3.2172958719853222   -0.0000121980345134
     1.5135527605314087    0.8737250401086029   55.0573010969723811
   Mn   Zr   Sb   S 
     1     1     4     8
Direct
  0.3333330000000032  0.3333330000000032  0.3333330000000032
  0.8333330000000032  0.3333330000000032  0.3333330000000032
  0.0046145499453134  0.0046218807453957  0.3969640178020398
  0.4216822758578903  0.9216767469119612  0.4219116628748411
  0.2449847241421065  0.7449902530880356  0.2447553371251629
  0.6620524500546833  0.6620451192546012  0.2697029821979641
  0.3973426313321830  0.3973420053673531  0.4521890013857165
  0.8347030161763216  0.3347038598760228  0.4237127432326057
  0.2693233686678234  0.2693239946326533  0.2144769986142826
  0.8319629838236848  0.3319621401239836  0.2429532567673938
  0.9939504372339861  0.9939523216094531  0.3046743819368555
  0.5121739666989636  0.0121692372547527  0.3080653953871495
  0.1544930333010333  0.6544977627452441  0.3586016046128544
  0.6727165627660107  0.6727146783905437  0.3619926180631484
 
  0.00000000E+00  0.00000000E+00  0.00000000E+00
  0.00000000E+00  0.00000000E+00  0.00000000E+00
  0.00000000E+00  0.00000000E+00  0.00000000E+00
  0.00000000E+00  0.00000000E+00  0.00000000E+00
  0.00000000E+00  0.00000000E+00  0.00000000E+00
  0.00000000E+00  0.00000000E+00  0.00000000E+00
  0.00000000E+00  0.00000000E+00  0.00000000E+00
  0.00000000E+00  0.00000000E+00  0.00000000E+00
  0.00000000E+00  0.00000000E+00  0.00000000E+00
  0.00000000E+00  0.00000000E+00  0.00000000E+00
  0.00000000E+00  0.00000000E+00  0.00000000E+00
  0.00000000E+00  0.00000000E+00  0.00000000E+00
  0.00000000E+00  0.00000000E+00  0.00000000E+00
  0.00000000E+00  0.00000000E+00  0.00000000E+00
