2 Te4                                   
   1.00000000000000     
     7.9377814331806897    0.0155931701375559   -0.0132738592698694
    -1.9776946270322413    3.4256499456914051   -0.0002396901786709
    -0.0481115170649940   -0.0313281173259478   48.8852212668335326
   Mn   V    Sn   Se
     1     1     4     8
Direct
  0.3333330000000032  0.3333330000000032  0.3333330000000032
  0.8333330000000032  0.3333330000000032  0.3333330000000032
  0.9996782892716061  0.9996441006112001  0.4063164317728144
  0.4993743408753821  0.9993732510520908  0.4079728541561631
  0.1672926591246146  0.6672937489479059  0.2586941458438408
  0.6669887107283907  0.6670228993887967  0.2603505682271895
  0.3272703253695307  0.3272926735215981  0.4386622050701268
  0.8384313376330980  0.3384356738343265  0.4380193674337823
  0.3393956746304758  0.3393733264784083  0.2280037949298724
  0.8282346623669085  0.3282303261656799  0.2286466325662169
  0.9860409951606897  0.9861253101274263  0.3039937178497587
  0.5143350065049431  0.0142849219598419  0.3029015234893009
  0.1523319934950537  0.6523820780401548  0.3637654765107030
  0.6806260048393071  0.6805416898725705  0.3626732821502452
 
  0.00000000E+00  0.00000000E+00  0.00000000E+00
  0.00000000E+00  0.00000000E+00  0.00000000E+00
  0.00000000E+00  0.00000000E+00  0.00000000E+00
  0.00000000E+00  0.00000000E+00  0.00000000E+00
  0.00000000E+00  0.00000000E+00  0.00000000E+00
  0.00000000E+00  0.00000000E+00  0.00000000E+00
  0.00000000E+00  0.00000000E+00  0.00000000E+00
  0.00000000E+00  0.00000000E+00  0.00000000E+00
  0.00000000E+00  0.00000000E+00  0.00000000E+00
  0.00000000E+00  0.00000000E+00  0.00000000E+00
  0.00000000E+00  0.00000000E+00  0.00000000E+00
  0.00000000E+00  0.00000000E+00  0.00000000E+00
  0.00000000E+00  0.00000000E+00  0.00000000E+00
  0.00000000E+00  0.00000000E+00  0.00000000E+00
