2 Te4                                   
   1.00000000000000     
     8.6144690674636841   -0.0119171953992092    0.0039852494131535
    -2.1587913023162941    3.7352310070027159   -0.0039789026311325
     0.0286504534732516   -0.0292835129105924   41.3916493297681996
   Mn   Pb   Te
     2     4     8
Direct
  0.3333330000000032  0.3333330000000032  0.3333330000000032
  0.8333330000000032  0.3333330000000032  0.3333330000000032
  0.9991254075018989  0.9989035374197803  0.4308965770901220
  0.4991254075018989  0.9989035374197803  0.4308965770901220
  0.1675415924980978  0.6677634625802165  0.2357704229098819
  0.6675415924980979  0.6677634625802165  0.2357704229098819
  0.3330648286941028  0.3331773220477606  0.4739861411521936
  0.8330648286941028  0.3331773220477606  0.4739861411521936
  0.3336011713059036  0.3334886779522458  0.1926798588478058
  0.8336011713059036  0.3334886779522458  0.1926798588478058
  0.9974632424973622  0.9977844372388909  0.2970358774304522
  0.4974632424973626  0.9977844372388909  0.2970358774304522
  0.1692037575026343  0.6688825627611059  0.3696311225695517
  0.6692037575026346  0.6688825627611059  0.3696311225695517
 
  0.00000000E+00  0.00000000E+00  0.00000000E+00
  0.00000000E+00  0.00000000E+00  0.00000000E+00
  0.00000000E+00  0.00000000E+00  0.00000000E+00
  0.00000000E+00  0.00000000E+00  0.00000000E+00
  0.00000000E+00  0.00000000E+00  0.00000000E+00
  0.00000000E+00  0.00000000E+00  0.00000000E+00
  0.00000000E+00  0.00000000E+00  0.00000000E+00
  0.00000000E+00  0.00000000E+00  0.00000000E+00
  0.00000000E+00  0.00000000E+00  0.00000000E+00
  0.00000000E+00  0.00000000E+00  0.00000000E+00
  0.00000000E+00  0.00000000E+00  0.00000000E+00
  0.00000000E+00  0.00000000E+00  0.00000000E+00
  0.00000000E+00  0.00000000E+00  0.00000000E+00
  0.00000000E+00  0.00000000E+00  0.00000000E+00
