2 Te4                                   
   1.00000000000000     
     7.8905051677686755   -0.0216153807103235   -0.0078792763585787
    -1.9819160075370614    3.4446424121483838    0.0027008443599528
     0.1180815104575903    0.1046324571477082   49.0395199232417554
   Mn   Fe   Bi   S 
     1     1     4     8
Direct
  0.3333329547667768  0.3333333622480062  0.3333336185128418
  0.8333338976881592  0.3333336365794379  0.3333330469698644
  0.9983755436560499  0.9987378971620999  0.4013006137033615
  0.5010140773755336  0.0018772025327432  0.4011162493868213
  0.1656529067033240  0.6647927655420851  0.2655497851058156
  0.6682915016412394  0.6679290994824116  0.2653654390048064
  0.3338150794043293  0.3333196848790163  0.4314187137707218
  0.8294201576245578  0.3297033916047235  0.4316422112714998
  0.3328525151782267  0.3333475864877216  0.2352474396227561
  0.8372461708516712  0.3369628927761794  0.2350238573294024
  0.9969550018612281  0.9995953595019487  0.3057058108854034
  0.5093235377704933  0.0081097918177437  0.3058334414571797
  0.1573415266704700  0.6585542827662192  0.3608339382547079
  0.6697111288079473  0.6670690466196707  0.3609618347248387
 
  0.00000000E+00  0.00000000E+00  0.00000000E+00
  0.00000000E+00  0.00000000E+00  0.00000000E+00
  0.00000000E+00  0.00000000E+00  0.00000000E+00
  0.00000000E+00  0.00000000E+00  0.00000000E+00
  0.00000000E+00  0.00000000E+00  0.00000000E+00
  0.00000000E+00  0.00000000E+00  0.00000000E+00
  0.00000000E+00  0.00000000E+00  0.00000000E+00
  0.00000000E+00  0.00000000E+00  0.00000000E+00
  0.00000000E+00  0.00000000E+00  0.00000000E+00
  0.00000000E+00  0.00000000E+00  0.00000000E+00
  0.00000000E+00  0.00000000E+00  0.00000000E+00
  0.00000000E+00  0.00000000E+00  0.00000000E+00
  0.00000000E+00  0.00000000E+00  0.00000000E+00
  0.00000000E+00  0.00000000E+00  0.00000000E+00
