2 Te4                                   
   1.00000000000000     
     8.4485682383732499    0.0058061292274355   -0.0097984271526996
    -2.1096290862403779    3.6539694371266216    0.0000218276288285
    -0.0483867694265082   -0.0276972101822583   43.0914786795756584
   Mn   V    Sn   Te
     1     1     4     8
Direct
  0.3333330000000032  0.3333330000000032  0.3333330000000032
  0.8333330000000032  0.3333330000000032  0.3333330000000032
  0.9979974362500809  0.9980023201877926  0.4215672752810495
  0.5007055121625085  0.0007058809841147  0.4222538355168058
  0.1659614878374883  0.6659611190158822  0.2444131644831982
  0.6686695637499159  0.6686646798122042  0.2450997247189544
  0.3320747919117689  0.3320708645771412  0.4608434857648334
  0.8349956079716789  0.3349923809765565  0.4608872798098044
  0.3345912080882376  0.3345951354228652  0.2058225142351660
  0.8316703920283275  0.3316736190234499  0.2057787201901949
  0.9954849773591660  0.9954864270255301  0.2959169782874952
  0.5025076342530566  0.0025084914769384  0.2963549155018324
  0.1641593657469403  0.6641585085230585  0.3703120844981715
  0.6711820226408308  0.6711805729744666  0.3707500217125087
 
  0.00000000E+00  0.00000000E+00  0.00000000E+00
  0.00000000E+00  0.00000000E+00  0.00000000E+00
  0.00000000E+00  0.00000000E+00  0.00000000E+00
  0.00000000E+00  0.00000000E+00  0.00000000E+00
  0.00000000E+00  0.00000000E+00  0.00000000E+00
  0.00000000E+00  0.00000000E+00  0.00000000E+00
  0.00000000E+00  0.00000000E+00  0.00000000E+00
  0.00000000E+00  0.00000000E+00  0.00000000E+00
  0.00000000E+00  0.00000000E+00  0.00000000E+00
  0.00000000E+00  0.00000000E+00  0.00000000E+00
  0.00000000E+00  0.00000000E+00  0.00000000E+00
  0.00000000E+00  0.00000000E+00  0.00000000E+00
  0.00000000E+00  0.00000000E+00  0.00000000E+00
  0.00000000E+00  0.00000000E+00  0.00000000E+00
