2 Te4                                   
   1.00000000000000     
     7.8466951883742748    0.0137659775385096   -0.0102443604579143
    -1.9557138510416665    3.3874169677747865    0.0000130684028118
    -0.0238841894487160   -0.0135955870507195   50.0168353681317299
   Mn   Cd   Sb   S 
     1     1     4     8
Direct
  0.3333330000000032  0.3333330000000032  0.3333330000000032
  0.8333330000000032  0.3333330000000032  0.3333330000000032
  0.0002363520155942  0.0002358100341510  0.4004051185756574
  0.4955860872048692  0.9955859368584874  0.3994831980411045
  0.1710809127951275  0.6710810631415094  0.2671838019588993
  0.6664306479844025  0.6664311899658457  0.2662618814243465
  0.3290669158064362  0.3290693277947621  0.4281009650686922
  0.8384226176092471  0.3384194820077527  0.4283345964778104
  0.3375990841935702  0.3375966722052444  0.2385650349313071
  0.8282433823907593  0.3282465179922537  0.2383314035221889
  0.0104638084735262  0.0104600801794169  0.3040615432136224
  0.4874038675398714  0.9874022401420429  0.3039665105325584
  0.1792631324601254  0.6792647598579539  0.3627004894674455
  0.6562031915264706  0.6562069198205799  0.3626054567863815
 
  0.00000000E+00  0.00000000E+00  0.00000000E+00
  0.00000000E+00  0.00000000E+00  0.00000000E+00
  0.00000000E+00  0.00000000E+00  0.00000000E+00
  0.00000000E+00  0.00000000E+00  0.00000000E+00
  0.00000000E+00  0.00000000E+00  0.00000000E+00
  0.00000000E+00  0.00000000E+00  0.00000000E+00
  0.00000000E+00  0.00000000E+00  0.00000000E+00
  0.00000000E+00  0.00000000E+00  0.00000000E+00
  0.00000000E+00  0.00000000E+00  0.00000000E+00
  0.00000000E+00  0.00000000E+00  0.00000000E+00
  0.00000000E+00  0.00000000E+00  0.00000000E+00
  0.00000000E+00  0.00000000E+00  0.00000000E+00
  0.00000000E+00  0.00000000E+00  0.00000000E+00
  0.00000000E+00  0.00000000E+00  0.00000000E+00
