2 Te4                                   
   1.00000000000000     
     8.6210848124741446    0.0472392286507056    0.2571605277466691
    -2.1346637571854643    3.6895394110473823   -0.0030223777384548
     1.2732483098411402    0.7012111093115100   41.7557107109549150
   Mn   Cu   Pb   Te
     1     1     4     8
Direct
  0.3333330000000032  0.3333330000000032  0.3333330000000032
  0.8333330000000032  0.3333330000000032  0.3333330000000032
  0.0011103531249650  0.0011578298032884  0.4283834599665308
  0.5082858178409044  0.0084337851548979  0.4264943039085228
  0.1583811821590924  0.6582332148450989  0.2401726960914811
  0.6655566468750319  0.6655091701967085  0.2382835400334731
  0.3270960343168969  0.3270769617953689  0.4682503457757904
  0.8223129584671672  0.3221681218581677  0.4706917455609035
  0.3395699656831095  0.3395890382046375  0.1984156542242018
  0.8443530415328392  0.3444978781418387  0.1959742544390958
  0.9722902700611266  0.9723895046118599  0.3029390083097241
  0.4741342892896520  0.9741328037330628  0.2952624736252046
  0.1925327107103448  0.6925341962669340  0.3714045263747993
  0.6943767299388631  0.6942774953881369  0.3637279916902798
 
  0.00000000E+00  0.00000000E+00  0.00000000E+00
  0.00000000E+00  0.00000000E+00  0.00000000E+00
  0.00000000E+00  0.00000000E+00  0.00000000E+00
  0.00000000E+00  0.00000000E+00  0.00000000E+00
  0.00000000E+00  0.00000000E+00  0.00000000E+00
  0.00000000E+00  0.00000000E+00  0.00000000E+00
  0.00000000E+00  0.00000000E+00  0.00000000E+00
  0.00000000E+00  0.00000000E+00  0.00000000E+00
  0.00000000E+00  0.00000000E+00  0.00000000E+00
  0.00000000E+00  0.00000000E+00  0.00000000E+00
  0.00000000E+00  0.00000000E+00  0.00000000E+00
  0.00000000E+00  0.00000000E+00  0.00000000E+00
  0.00000000E+00  0.00000000E+00  0.00000000E+00
  0.00000000E+00  0.00000000E+00  0.00000000E+00
