2 Te4                                   
   1.00000000000000     
     7.8814291176615887    0.0063630037832008   -0.0032856393167736
    -1.9676031469560931    3.4080938543241648    0.0000324181035469
     0.0003186683588876    0.0006603804902104   49.5213019824456140
   Mn   Ni   Bi   S 
     1     1     4     8
Direct
  0.3333330000000032  0.3333330000000032  0.3333330000000032
  0.8333330000000032  0.3333330000000032  0.3333330000000032
  0.9972564316972442  0.9972876829145126  0.3993873850416820
  0.5022236558310490  0.0022846925305190  0.3995822115374704
  0.1644433441689477  0.6643823074694779  0.2670847884625335
  0.6694105683027526  0.6693793170854841  0.2672796149583219
  0.3378371352739966  0.3378348477858588  0.4295297333764161
  0.8283209963301182  0.3283446892741383  0.4299403453859342
  0.3288288647260099  0.3288311522141477  0.2371362666235831
  0.8383450036698882  0.3383213107258681  0.2367256546140652
  0.9879444207767965  0.9879418914389007  0.3075586496502382
  0.5136028006521738  0.0135924047288049  0.3069951045383921
  0.1530641993478233  0.6530745952711918  0.3596718954616118
  0.6787225792232003  0.6787251085610961  0.3591083503497657
 
  0.00000000E+00  0.00000000E+00  0.00000000E+00
  0.00000000E+00  0.00000000E+00  0.00000000E+00
  0.00000000E+00  0.00000000E+00  0.00000000E+00
  0.00000000E+00  0.00000000E+00  0.00000000E+00
  0.00000000E+00  0.00000000E+00  0.00000000E+00
  0.00000000E+00  0.00000000E+00  0.00000000E+00
  0.00000000E+00  0.00000000E+00  0.00000000E+00
  0.00000000E+00  0.00000000E+00  0.00000000E+00
  0.00000000E+00  0.00000000E+00  0.00000000E+00
  0.00000000E+00  0.00000000E+00  0.00000000E+00
  0.00000000E+00  0.00000000E+00  0.00000000E+00
  0.00000000E+00  0.00000000E+00  0.00000000E+00
  0.00000000E+00  0.00000000E+00  0.00000000E+00
  0.00000000E+00  0.00000000E+00  0.00000000E+00
