2 Te4                                   
   1.00000000000000     
     8.8153727458079647    0.0798963637804808    0.0284071431822350
    -2.1692475115674634    3.7571917290611894    0.0000091534170679
     0.1426118704272027    0.0825487325692419   39.9711743057160263
   Mn   Cr   Bi   Te
     1     1     4     8
Direct
  0.3333330000000032  0.3333330000000032  0.3333330000000032
  0.8333330000000032  0.3333330000000032  0.3333330000000032
  0.9948531865910349  0.9948525261321659  0.4268805278287975
  0.4936500907871352  0.9936504822206628  0.4265798170932204
  0.1730169092128616  0.6730165177793340  0.2400871829067833
  0.6718138134089618  0.6718144738678309  0.2397864721712062
  0.3328401351729228  0.3328404177818187  0.4698505646029483
  0.8348744470522004  0.3348732120164216  0.4705880457249574
  0.3338258648270837  0.3338255822181878  0.1968154353970511
  0.8317915529478060  0.3317927879835849  0.1960779542750418
  0.9889353377246998  0.9889322966136063  0.2959124754568550
  0.4857649364437696  0.9857635228515476  0.2928047420035695
  0.1809020635562272  0.6809034771484492  0.3738622579964344
  0.6777316622752970  0.6777347033863905  0.3707545245431489
 
  0.00000000E+00  0.00000000E+00  0.00000000E+00
  0.00000000E+00  0.00000000E+00  0.00000000E+00
  0.00000000E+00  0.00000000E+00  0.00000000E+00
  0.00000000E+00  0.00000000E+00  0.00000000E+00
  0.00000000E+00  0.00000000E+00  0.00000000E+00
  0.00000000E+00  0.00000000E+00  0.00000000E+00
  0.00000000E+00  0.00000000E+00  0.00000000E+00
  0.00000000E+00  0.00000000E+00  0.00000000E+00
  0.00000000E+00  0.00000000E+00  0.00000000E+00
  0.00000000E+00  0.00000000E+00  0.00000000E+00
  0.00000000E+00  0.00000000E+00  0.00000000E+00
  0.00000000E+00  0.00000000E+00  0.00000000E+00
  0.00000000E+00  0.00000000E+00  0.00000000E+00
  0.00000000E+00  0.00000000E+00  0.00000000E+00
