2 Te4                                   
   1.00000000000000     
     8.0810463919287709    0.0563179499635333   -0.0315375694967920
    -1.9958756848241443    3.4568442102301629   -0.0000010855938405
    -0.1036051620350287   -0.0598594434059826   47.4487166857025926
   Mn   Ti   Pb   Se
     1     1     4     8
Direct
  0.3333330000000032  0.3333330000000032  0.3333330000000032
  0.8333330000000032  0.3333330000000032  0.3333330000000032
  0.0014084651120339  0.0014130748503640  0.4150953690574440
  0.4974893213397697  0.9974917929131738  0.4155576050707315
  0.1691776786602271  0.6691752070868230  0.2511093949292724
  0.6652585348879628  0.6652539251496327  0.2515716309425599
  0.3335214101709890  0.3335178978028561  0.4492776744227543
  0.8329052780080154  0.3329050792270957  0.4485684072569405
  0.3331445898290174  0.3331481021971503  0.2173883255772450
  0.8337607219919910  0.3337609207729107  0.2180975927430588
  0.9790406057058388  0.9790387078737299  0.3033515349165802
  0.5130933023747369  0.0130929210608808  0.3044091995681225
  0.1535736976252598  0.6535740789391161  0.3622578004318814
  0.6876263942941579  0.6876282921262669  0.3633154650834237
 
  0.00000000E+00  0.00000000E+00  0.00000000E+00
  0.00000000E+00  0.00000000E+00  0.00000000E+00
  0.00000000E+00  0.00000000E+00  0.00000000E+00
  0.00000000E+00  0.00000000E+00  0.00000000E+00
  0.00000000E+00  0.00000000E+00  0.00000000E+00
  0.00000000E+00  0.00000000E+00  0.00000000E+00
  0.00000000E+00  0.00000000E+00  0.00000000E+00
  0.00000000E+00  0.00000000E+00  0.00000000E+00
  0.00000000E+00  0.00000000E+00  0.00000000E+00
  0.00000000E+00  0.00000000E+00  0.00000000E+00
  0.00000000E+00  0.00000000E+00  0.00000000E+00
  0.00000000E+00  0.00000000E+00  0.00000000E+00
  0.00000000E+00  0.00000000E+00  0.00000000E+00
  0.00000000E+00  0.00000000E+00  0.00000000E+00
