2 Te4                                   
   1.00000000000000     
     8.0516479273568677   -0.0287698737858476   -0.0018142236371975
    -2.0253630465588479    3.5021928396049673   -0.0012663713864158
    -0.0155556753918339   -0.0254106526946734   47.2916677503615830
   Mn   Fe   Sb   Se
     1     1     4     8
Direct
  0.3333330000000032  0.3333330000000032  0.3333330000000032
  0.8333330000000032  0.3333330000000032  0.3333330000000032
  0.9995337357353803  0.9992879428424224  0.4058846805064609
  0.5026529839764465  0.0018501480647957  0.4057786660424342
  0.1640140160235500  0.6648168519352011  0.2608883339575697
  0.6671332642646165  0.6673790571575744  0.2607823194935430
  0.3352832287027218  0.3357206979755085  0.4384159595875979
  0.8308344058450153  0.3307310998976912  0.4386010391919446
  0.3313827712972846  0.3309453020244980  0.2282500404124014
  0.8358315941549911  0.3359349001023152  0.2280649608080548
  0.9956427198990253  0.9941037304786934  0.3025446810654749
  0.5084030632223158  0.0086250555144515  0.3026588952551439
  0.1582639367776810  0.6580419444855452  0.3640081047448600
  0.6710242801009786  0.6725632695213034  0.3641223189345290
 
  0.00000000E+00  0.00000000E+00  0.00000000E+00
  0.00000000E+00  0.00000000E+00  0.00000000E+00
  0.00000000E+00  0.00000000E+00  0.00000000E+00
  0.00000000E+00  0.00000000E+00  0.00000000E+00
  0.00000000E+00  0.00000000E+00  0.00000000E+00
  0.00000000E+00  0.00000000E+00  0.00000000E+00
  0.00000000E+00  0.00000000E+00  0.00000000E+00
  0.00000000E+00  0.00000000E+00  0.00000000E+00
  0.00000000E+00  0.00000000E+00  0.00000000E+00
  0.00000000E+00  0.00000000E+00  0.00000000E+00
  0.00000000E+00  0.00000000E+00  0.00000000E+00
  0.00000000E+00  0.00000000E+00  0.00000000E+00
  0.00000000E+00  0.00000000E+00  0.00000000E+00
  0.00000000E+00  0.00000000E+00  0.00000000E+00
