2 Te4                                   
   1.00000000000000     
     8.0816155562674794   -0.0011138814317267   -0.0016429200828311
    -2.0208871727239792    3.5002787216487223    0.0000047552081616
     0.0004463342820793    0.0003219811498948   47.0483828962776798
   Mn   V    Sb   Se
     1     1     4     8
Direct
  0.3333330000000032  0.3333330000000032  0.3333330000000032
  0.8333330000000032  0.3333330000000032  0.3333330000000032
  0.9982006278861127  0.9982007693962929  0.4058612546882221
  0.5012786021708572  0.0012786470020687  0.4074055295706837
  0.1653883978291397  0.6653883529979282  0.2592614704293202
  0.6684663721138840  0.6684662306037039  0.2608057453117818
  0.3344655503774406  0.3344654809423981  0.4395393521425914
  0.8322370100980321  0.3322369698559857  0.4392339733275192
  0.3322004496225658  0.3322005190576083  0.2271266478574079
  0.8344289899019743  0.3344290301440208  0.2274320266724801
  0.9972260997094250  0.9972252381199935  0.3020766369530151
  0.5020376447620395  0.0020374529146941  0.3019462645280589
  0.1646293552379573  0.6646295470853026  0.3647207354719449
  0.6694409002905718  0.6694417618800033  0.3645903630469888
 
  0.00000000E+00  0.00000000E+00  0.00000000E+00
  0.00000000E+00  0.00000000E+00  0.00000000E+00
  0.00000000E+00  0.00000000E+00  0.00000000E+00
  0.00000000E+00  0.00000000E+00  0.00000000E+00
  0.00000000E+00  0.00000000E+00  0.00000000E+00
  0.00000000E+00  0.00000000E+00  0.00000000E+00
  0.00000000E+00  0.00000000E+00  0.00000000E+00
  0.00000000E+00  0.00000000E+00  0.00000000E+00
  0.00000000E+00  0.00000000E+00  0.00000000E+00
  0.00000000E+00  0.00000000E+00  0.00000000E+00
  0.00000000E+00  0.00000000E+00  0.00000000E+00
  0.00000000E+00  0.00000000E+00  0.00000000E+00
  0.00000000E+00  0.00000000E+00  0.00000000E+00
  0.00000000E+00  0.00000000E+00  0.00000000E+00
