2 Te4                                   
   1.00000000000000     
     7.9998537752322711    0.0061991369188504   -0.0068732972633336
    -1.9972800655585476    3.4593772044313891    0.0000062304204995
     0.0026024369272417    0.0015461864718221   48.0658585282917983
   Mn   Tc   Bi   S 
     1     1     4     8
Direct
  0.3333330000000032  0.3333330000000032  0.3333330000000032
  0.8333330000000032  0.3333330000000032  0.3333330000000032
  0.0013917863340488  0.0013919252238689  0.4040730913619102
  0.4975431743424180  0.9975435729884142  0.4035136569647615
  0.1691238256575789  0.6691234270115826  0.2631533430352424
  0.6652752136659479  0.6652750747761279  0.2625939086380937
  0.3302412275015105  0.3302400938838029  0.4344121475463673
  0.8365467831676675  0.3365460956157832  0.4342130340745959
  0.3364247724984959  0.3364259061162035  0.2322538524536321
  0.8301192168323389  0.3301199043842232  0.2324529659254033
  0.0070988790560284  0.0070962285024121  0.3034987291474927
  0.4922381537175794  0.9922382005645467  0.3038312384824007
  0.1744288462824173  0.6744287994354501  0.3628357615176032
  0.6595681209439684  0.6595707714975846  0.3631682708525112
 
  0.00000000E+00  0.00000000E+00  0.00000000E+00
  0.00000000E+00  0.00000000E+00  0.00000000E+00
  0.00000000E+00  0.00000000E+00  0.00000000E+00
  0.00000000E+00  0.00000000E+00  0.00000000E+00
  0.00000000E+00  0.00000000E+00  0.00000000E+00
  0.00000000E+00  0.00000000E+00  0.00000000E+00
  0.00000000E+00  0.00000000E+00  0.00000000E+00
  0.00000000E+00  0.00000000E+00  0.00000000E+00
  0.00000000E+00  0.00000000E+00  0.00000000E+00
  0.00000000E+00  0.00000000E+00  0.00000000E+00
  0.00000000E+00  0.00000000E+00  0.00000000E+00
  0.00000000E+00  0.00000000E+00  0.00000000E+00
  0.00000000E+00  0.00000000E+00  0.00000000E+00
  0.00000000E+00  0.00000000E+00  0.00000000E+00
