2 Te4                                   
   1.00000000000000     
     7.7833435489184222    0.1049834277605409   -0.0285877882354822
    -1.9003789297014595    3.2916727895081639    0.0002095853891747
     0.0681625628901369    0.0418668449434701   51.5414309866378915
   Mn   Nb   Pb   S 
     1     1     4     8
Direct
  0.3333330000000032  0.3333330000000032  0.3333330000000032
  0.8333330000000032  0.3333330000000032  0.3333330000000032
  0.0050336520611883  0.0050307858957779  0.4100041186332249
  0.5010562484930020  0.0010535679758752  0.4109260964005417
  0.1656107515069947  0.6656134320241214  0.2557409035994622
  0.6616333479388087  0.6616362141042188  0.2566628813667790
  0.3331755940400599  0.3331344575599258  0.4400030199483217
  0.8350345091677128  0.3349936390218690  0.4390090083930270
  0.3334904059599466  0.3335315424400807  0.2266629800516775
  0.8316314908322936  0.3316723609781374  0.2276569916069724
  0.9666546923093243  0.9666946258431498  0.3057584641881740
  0.5165572973691036  0.0166097006251021  0.3090632039937724
  0.1501097026308935  0.6500572993748946  0.3576037960062244
  0.7000123076906725  0.6999723741568470  0.3609085358118299
 
  0.00000000E+00  0.00000000E+00  0.00000000E+00
  0.00000000E+00  0.00000000E+00  0.00000000E+00
  0.00000000E+00  0.00000000E+00  0.00000000E+00
  0.00000000E+00  0.00000000E+00  0.00000000E+00
  0.00000000E+00  0.00000000E+00  0.00000000E+00
  0.00000000E+00  0.00000000E+00  0.00000000E+00
  0.00000000E+00  0.00000000E+00  0.00000000E+00
  0.00000000E+00  0.00000000E+00  0.00000000E+00
  0.00000000E+00  0.00000000E+00  0.00000000E+00
  0.00000000E+00  0.00000000E+00  0.00000000E+00
  0.00000000E+00  0.00000000E+00  0.00000000E+00
  0.00000000E+00  0.00000000E+00  0.00000000E+00
  0.00000000E+00  0.00000000E+00  0.00000000E+00
  0.00000000E+00  0.00000000E+00  0.00000000E+00
