2 Te4                                   
   1.00000000000000     
     8.2478319073179769   -0.0124392972125769    0.0065308787848282
    -2.0673410533570435    3.5823386243460678   -0.0012458019675496
     0.0350510622670112    0.0047815187240368   45.0799007674182661
   Mn   Y    Pb   Se
     1     1     4     8
Direct
  0.3333330000000032  0.3333330000000032  0.3333330000000032
  0.8333330000000032  0.3333330000000032  0.3333330000000032
  0.0015231881899081  0.0014102410044620  0.4168040728522513
  0.4964534218363537  0.9965854090229839  0.4204431816839252
  0.1702135781636431  0.6700815909770129  0.2462238183160786
  0.6651438118100890  0.6652567589955347  0.2498629271477525
  0.3244305436414135  0.3246298920262903  0.4540820215213493
  0.8406661352596841  0.3403177479833192  0.4521407560793199
  0.3422354563585929  0.3420361079737161  0.2125839784786501
  0.8259998647403223  0.3263482520166873  0.2145252439206794
  0.0134956027088151  0.0133050771383157  0.2979586064267420
  0.4794671645969693  0.9795888248258990  0.3003633282528466
  0.1871998354030275  0.6870781751740977  0.3663036717471573
  0.6531713972911818  0.6533619228616810  0.3687083935732619
 
  0.00000000E+00  0.00000000E+00  0.00000000E+00
  0.00000000E+00  0.00000000E+00  0.00000000E+00
  0.00000000E+00  0.00000000E+00  0.00000000E+00
  0.00000000E+00  0.00000000E+00  0.00000000E+00
  0.00000000E+00  0.00000000E+00  0.00000000E+00
  0.00000000E+00  0.00000000E+00  0.00000000E+00
  0.00000000E+00  0.00000000E+00  0.00000000E+00
  0.00000000E+00  0.00000000E+00  0.00000000E+00
  0.00000000E+00  0.00000000E+00  0.00000000E+00
  0.00000000E+00  0.00000000E+00  0.00000000E+00
  0.00000000E+00  0.00000000E+00  0.00000000E+00
  0.00000000E+00  0.00000000E+00  0.00000000E+00
  0.00000000E+00  0.00000000E+00  0.00000000E+00
  0.00000000E+00  0.00000000E+00  0.00000000E+00
