2 Te4                                   
   1.00000000000000     
     8.7365238545770403   -0.0331204281149047    0.0164369559333655
    -2.1982444601639544    3.7989058131963001   -0.0036595210675650
     0.0798016361004532    0.0124119304556848   40.1854796038916930
   Mn   Ru   Bi   Te
     1     1     4     8
Direct
  0.3333330000000032  0.3333330000000032  0.3333330000000032
  0.8333330000000032  0.3333330000000032  0.3333330000000032
  0.0007270152881994  0.0001483908960924  0.4270633768297617
  0.5008158958764417 -0.0000994825429034  0.4251874211254912
  0.1658511041235552  0.6667664825429001  0.2414795788745127
  0.6659399847117973  0.6665186091039044  0.2396036231702422
  0.3348169777210784  0.3354845248267830  0.4692349955401065
  0.8309400298665507  0.3311487154260121  0.4698074676156662
  0.3318490222789280  0.3311814751732234  0.1974310044598928
  0.8357259701334557  0.3355172845739943  0.1968585323843331
  0.9960612922048419  0.9950172618428265  0.2951618313236908
  0.5045303551155296  0.0052389949065815  0.2944797654592184
  0.1621366448844672  0.6614280050934154  0.3721872345407854
  0.6706057077951549  0.6716497381571703  0.3715051686763131
 
  0.00000000E+00  0.00000000E+00  0.00000000E+00
  0.00000000E+00  0.00000000E+00  0.00000000E+00
  0.00000000E+00  0.00000000E+00  0.00000000E+00
  0.00000000E+00  0.00000000E+00  0.00000000E+00
  0.00000000E+00  0.00000000E+00  0.00000000E+00
  0.00000000E+00  0.00000000E+00  0.00000000E+00
  0.00000000E+00  0.00000000E+00  0.00000000E+00
  0.00000000E+00  0.00000000E+00  0.00000000E+00
  0.00000000E+00  0.00000000E+00  0.00000000E+00
  0.00000000E+00  0.00000000E+00  0.00000000E+00
  0.00000000E+00  0.00000000E+00  0.00000000E+00
  0.00000000E+00  0.00000000E+00  0.00000000E+00
  0.00000000E+00  0.00000000E+00  0.00000000E+00
  0.00000000E+00  0.00000000E+00  0.00000000E+00
