2 Te4                                   
   1.00000000000000     
     8.5860574331837682   -0.0217946928852205   -0.0105653601652142
    -2.1559527667649587    3.7342685081515690   -0.0010564837876800
    -0.0546107837938634   -0.0428420621393066   41.5670980990210523
   Mn   Mo   Pb   Te
     1     1     4     8
Direct
  0.3333330000000032  0.3333330000000032  0.3333330000000032
  0.8333330000000032  0.3333330000000032  0.3333330000000032
  0.9976191418831409  0.9976090628612022  0.4308975237951624
  0.4985037154354888  0.9984786020039678  0.4317245966042644
  0.1681632845645080  0.6681883979960290  0.2349424033957394
  0.6690478581168559  0.6690579371387946  0.2357694762048415
  0.3324456099595899  0.3324993176323017  0.4732915318643379
  0.8344726516198323  0.3344475833518641  0.4730525646229535
  0.3342203900404165  0.3341666823677047  0.1933744681356614
  0.8321933483801741  0.3322184166481423  0.1936134353770459
  0.9922636702969359  0.9922781600261816  0.2967452291753902
  0.5003335387253169  0.0005932765370597  0.2980795676531845
  0.1663334612746799  0.6660737234629369  0.3685874323468194
  0.6744033297030609  0.6743888399738152  0.3699217708246137
 
  0.00000000E+00  0.00000000E+00  0.00000000E+00
  0.00000000E+00  0.00000000E+00  0.00000000E+00
  0.00000000E+00  0.00000000E+00  0.00000000E+00
  0.00000000E+00  0.00000000E+00  0.00000000E+00
  0.00000000E+00  0.00000000E+00  0.00000000E+00
  0.00000000E+00  0.00000000E+00  0.00000000E+00
  0.00000000E+00  0.00000000E+00  0.00000000E+00
  0.00000000E+00  0.00000000E+00  0.00000000E+00
  0.00000000E+00  0.00000000E+00  0.00000000E+00
  0.00000000E+00  0.00000000E+00  0.00000000E+00
  0.00000000E+00  0.00000000E+00  0.00000000E+00
  0.00000000E+00  0.00000000E+00  0.00000000E+00
  0.00000000E+00  0.00000000E+00  0.00000000E+00
  0.00000000E+00  0.00000000E+00  0.00000000E+00
