2 Te4                                   
   1.00000000000000     
     8.7899902694620486   -0.0067916723903076   -0.0049385685781066
    -2.2004397513795699    3.8112831754712313   -0.0000017607890183
     0.0052316642484291    0.0031771121015366   39.7415755320131225
   Mn   Tc   Bi   Te
     1     1     4     8
Direct
  0.3333330000000032  0.3333330000000032  0.3333330000000032
  0.8333330000000032  0.3333330000000032  0.3333330000000032
  0.0017884634471378  0.0017857395030343  0.4284491696245692
  0.4990627605751657  0.9990712699991859  0.4281244943268065
  0.1676042394248310  0.6675957300008108  0.2385425056731975
  0.6648785365528590  0.6648812604969626  0.2382178303754346
  0.3318651069191074  0.3318694100199197  0.4720054236379060
  0.8346950433346034  0.3346868343839708  0.4716671572949804
  0.3348008930808991  0.3347965899800868  0.1946605763620931
  0.8319709566654030  0.3319791656160356  0.1949988427050189
  0.0045900507703153  0.0045942395835033  0.2927186879114644
  0.4969068333903306  0.9969214701638398  0.2931126254979577
  0.1697601666096661  0.6697455298361570  0.3735543745020461
  0.6620769492296815  0.6620727604164937  0.3739483120885395
 
  0.00000000E+00  0.00000000E+00  0.00000000E+00
  0.00000000E+00  0.00000000E+00  0.00000000E+00
  0.00000000E+00  0.00000000E+00  0.00000000E+00
  0.00000000E+00  0.00000000E+00  0.00000000E+00
  0.00000000E+00  0.00000000E+00  0.00000000E+00
  0.00000000E+00  0.00000000E+00  0.00000000E+00
  0.00000000E+00  0.00000000E+00  0.00000000E+00
  0.00000000E+00  0.00000000E+00  0.00000000E+00
  0.00000000E+00  0.00000000E+00  0.00000000E+00
  0.00000000E+00  0.00000000E+00  0.00000000E+00
  0.00000000E+00  0.00000000E+00  0.00000000E+00
  0.00000000E+00  0.00000000E+00  0.00000000E+00
  0.00000000E+00  0.00000000E+00  0.00000000E+00
  0.00000000E+00  0.00000000E+00  0.00000000E+00
