2 Te4                                   
   1.00000000000000     
     7.7705514153491224   -0.0203758525790162   -0.0632156669437021
    -1.9514618344994787    3.3821792398508927   -0.0007582791514007
    -0.2574147314591346   -0.1601599963077844   50.7159755179759557
   Mn   Zn   Pb   S 
     1     1     4     8
Direct
  0.3333330000000032  0.3333330000000032  0.3333330000000032
  0.8333330000000032  0.3333330000000032  0.3333330000000032
  0.0033532191594565  0.0032947255939972  0.3998850334334949
  0.5051883527022218  0.0050138551085034  0.3992483312512699
  0.1614786472977750  0.6616531448914935  0.2674186687487340
  0.6633137808405403  0.6633722744059998  0.2667819665665090
  0.3445847815779366  0.3445195394729502  0.4288928460477718
  0.8389121957472028  0.3392085936903267  0.4293848260208946
  0.3220812184220698  0.3221464605270563  0.2377731539522275
  0.8277538042528036  0.3274574063096797  0.2372811739791046
  0.9961901748284858  0.9967367662231366  0.3075488649380438
  0.5018111606495066  0.0017852540551770  0.3072728753703666
  0.1648558393504902  0.6648817459448199  0.3593941246296373
  0.6704768251715110  0.6699302337768602  0.3591181350619601
 
  0.00000000E+00  0.00000000E+00  0.00000000E+00
  0.00000000E+00  0.00000000E+00  0.00000000E+00
  0.00000000E+00  0.00000000E+00  0.00000000E+00
  0.00000000E+00  0.00000000E+00  0.00000000E+00
  0.00000000E+00  0.00000000E+00  0.00000000E+00
  0.00000000E+00  0.00000000E+00  0.00000000E+00
  0.00000000E+00  0.00000000E+00  0.00000000E+00
  0.00000000E+00  0.00000000E+00  0.00000000E+00
  0.00000000E+00  0.00000000E+00  0.00000000E+00
  0.00000000E+00  0.00000000E+00  0.00000000E+00
  0.00000000E+00  0.00000000E+00  0.00000000E+00
  0.00000000E+00  0.00000000E+00  0.00000000E+00
  0.00000000E+00  0.00000000E+00  0.00000000E+00
  0.00000000E+00  0.00000000E+00  0.00000000E+00
