2 Te4                                   
   1.00000000000000     
     7.7205337360214399   -0.0204842269170409   -0.0132297906562720
    -1.9390041575436794    3.3585075911171582   -0.0000441026000147
    -0.0487186455035617   -0.0288166047012930   51.4024730841900421
   Mn   Pd   Sb   S 
     1     1     4     8
Direct
  0.3333330000000032  0.3333330000000032  0.3333330000000032
  0.8333330000000032  0.3333330000000032  0.3333330000000032
  0.0037562979977713  0.0037569203270338  0.3962170809478328
  0.5065918569637627  0.0065916571758832  0.3942325846404938
  0.1600751430362342  0.6600753428241136  0.2724344153595101
  0.6629107020022255  0.6629100796729630  0.2704499190521711
  0.3384428154787634  0.3384408022447329  0.4232940030350219
  0.8257372783492281  0.3257343737654811  0.4235426128798909
  0.3282231845212430  0.3282251977552735  0.2433719969649774
  0.8409287216507784  0.3409316262345253  0.2431233871201084
  0.0017314941947889  0.0017284390724759  0.3061633605689361
  0.5125707843343055  0.0125673278325838  0.3074074919654365
  0.1540962156656913  0.6540996721674128  0.3592595080345674
  0.6649355058052079  0.6649385609275211  0.3605036394310678
 
  0.00000000E+00  0.00000000E+00  0.00000000E+00
  0.00000000E+00  0.00000000E+00  0.00000000E+00
  0.00000000E+00  0.00000000E+00  0.00000000E+00
  0.00000000E+00  0.00000000E+00  0.00000000E+00
  0.00000000E+00  0.00000000E+00  0.00000000E+00
  0.00000000E+00  0.00000000E+00  0.00000000E+00
  0.00000000E+00  0.00000000E+00  0.00000000E+00
  0.00000000E+00  0.00000000E+00  0.00000000E+00
  0.00000000E+00  0.00000000E+00  0.00000000E+00
  0.00000000E+00  0.00000000E+00  0.00000000E+00
  0.00000000E+00  0.00000000E+00  0.00000000E+00
  0.00000000E+00  0.00000000E+00  0.00000000E+00
  0.00000000E+00  0.00000000E+00  0.00000000E+00
  0.00000000E+00  0.00000000E+00  0.00000000E+00
