2 Te4                                   
   1.00000000000000     
     8.6091543873266936    0.0002397190495848    0.0090036418416912
    -2.1521865267625904    3.7275303902967312    0.0000481479908443
     0.0449210817841309    0.0264978055922844   41.4689413569708165
   Mn   Ti   Sb   Te
     1     1     4     8
Direct
  0.3333330000000032  0.3333330000000032  0.3333330000000032
  0.8333330000000032  0.3333330000000032  0.3333330000000032
  0.9989626096963138  0.9989618073392110  0.4222214118028300
  0.4998068113053830  0.9998034486644389  0.4240488133537861
  0.1668601886946137  0.6668635513355579  0.2426181866462178
  0.6677043903036830  0.6677051926607858  0.2444455881971738
  0.3317369696661550  0.3317440055803932  0.4639279878561112
  0.8348490818166412  0.3348597136182513  0.4633057091100724
  0.3349290303338514  0.3349219944196132  0.2027380121438881
  0.8318169181833652  0.3318062863817551  0.2033602908899270
 -0.0001624962575912 -0.0001801374269353  0.2932267861348729
  0.4960233228496330  0.9960151720137558  0.2937903417287245
  0.1706436771503638  0.6706518279862410  0.3728766582712794
  0.6668294962575880  0.6668471374269321  0.3734402138651310
 
  0.00000000E+00  0.00000000E+00  0.00000000E+00
  0.00000000E+00  0.00000000E+00  0.00000000E+00
  0.00000000E+00  0.00000000E+00  0.00000000E+00
  0.00000000E+00  0.00000000E+00  0.00000000E+00
  0.00000000E+00  0.00000000E+00  0.00000000E+00
  0.00000000E+00  0.00000000E+00  0.00000000E+00
  0.00000000E+00  0.00000000E+00  0.00000000E+00
  0.00000000E+00  0.00000000E+00  0.00000000E+00
  0.00000000E+00  0.00000000E+00  0.00000000E+00
  0.00000000E+00  0.00000000E+00  0.00000000E+00
  0.00000000E+00  0.00000000E+00  0.00000000E+00
  0.00000000E+00  0.00000000E+00  0.00000000E+00
  0.00000000E+00  0.00000000E+00  0.00000000E+00
  0.00000000E+00  0.00000000E+00  0.00000000E+00
