2 Te4                                   
   1.00000000000000     
     7.9540013544785957    0.0020464157617226    0.0187857072097308
    -1.9876185120328733    3.4441164085157907    0.0005995119188246
    -0.1263225820531522   -0.0646257356349644   48.5712678723886668
   Mn   Ru   Bi   S 
     1     1     4     8
Direct
  0.3333330000000032  0.3333330000000032  0.3333330000000032
  0.8333330000000032  0.3333330000000032  0.3333330000000032
  0.9997183217429232  0.9997512482380234  0.4025211583562165
  0.4988011264281710  0.9988708797411210  0.4019370833903720
  0.1678658735718258  0.6677961202588758  0.2647299166096319
  0.6669486782570736  0.6669157517619734  0.2641458416437874
  0.3323216550813314  0.3322648364941280  0.4326494208777188
  0.8330637428904845  0.3330637944021166  0.4327158785320000
  0.3343443449186750  0.3344011635058785  0.2340165791222805
  0.8336022571095220  0.3336022055978898  0.2339501214679992
  0.0011751504059222  0.0012797490520482  0.3047426612921884
  0.4994296323929296  0.9992622786935415  0.3049725751121227
  0.1672373676070671  0.6674047213064553  0.3616944248878812
  0.6654918495940745  0.6653872509479488  0.3619243387078155
 
  0.00000000E+00  0.00000000E+00  0.00000000E+00
  0.00000000E+00  0.00000000E+00  0.00000000E+00
  0.00000000E+00  0.00000000E+00  0.00000000E+00
  0.00000000E+00  0.00000000E+00  0.00000000E+00
  0.00000000E+00  0.00000000E+00  0.00000000E+00
  0.00000000E+00  0.00000000E+00  0.00000000E+00
  0.00000000E+00  0.00000000E+00  0.00000000E+00
  0.00000000E+00  0.00000000E+00  0.00000000E+00
  0.00000000E+00  0.00000000E+00  0.00000000E+00
  0.00000000E+00  0.00000000E+00  0.00000000E+00
  0.00000000E+00  0.00000000E+00  0.00000000E+00
  0.00000000E+00  0.00000000E+00  0.00000000E+00
  0.00000000E+00  0.00000000E+00  0.00000000E+00
  0.00000000E+00  0.00000000E+00  0.00000000E+00
