2 Te4                                   
   1.00000000000000     
     8.3646671373191026    0.0196981370972822    0.0089587761891869
    -2.0826385949181030    3.6072036239297431   -0.0000066317143293
     0.0422118724865423    0.0243899774967994   44.0455614469704599
   Mn   Sc   Bi   Se
     1     1     4     8
Direct
  0.3333330000000032  0.3333330000000032  0.3333330000000032
  0.8333330000000032  0.3333330000000032  0.3333330000000032
  0.0014271568692942  0.0014279011361917  0.4142210927309141
  0.4996204809278753  0.9996206083996168  0.4165190084302852
  0.1670465190721215  0.6670463916003800  0.2501479915697187
  0.6652398431307026  0.6652390988638051  0.2524459072690898
  0.3317272618941122  0.3317280584399336  0.4502483064094193
  0.8345727170308506  0.3345712277544154  0.4494328852277228
  0.3349387381058943  0.3349379415600728  0.2164176935905801
  0.8320932829691559  0.3320947722455910  0.2172331147722765
  0.9958554397492818  0.9958553510397045  0.2998225105678303
  0.5014575098978572  0.0014553206285495  0.3005876733961762
  0.1652094901021396  0.6652116793714474  0.3660793266038277
  0.6708115602507150  0.6708116489602923  0.3668444894321736
 
  0.00000000E+00  0.00000000E+00  0.00000000E+00
  0.00000000E+00  0.00000000E+00  0.00000000E+00
  0.00000000E+00  0.00000000E+00  0.00000000E+00
  0.00000000E+00  0.00000000E+00  0.00000000E+00
  0.00000000E+00  0.00000000E+00  0.00000000E+00
  0.00000000E+00  0.00000000E+00  0.00000000E+00
  0.00000000E+00  0.00000000E+00  0.00000000E+00
  0.00000000E+00  0.00000000E+00  0.00000000E+00
  0.00000000E+00  0.00000000E+00  0.00000000E+00
  0.00000000E+00  0.00000000E+00  0.00000000E+00
  0.00000000E+00  0.00000000E+00  0.00000000E+00
  0.00000000E+00  0.00000000E+00  0.00000000E+00
  0.00000000E+00  0.00000000E+00  0.00000000E+00
  0.00000000E+00  0.00000000E+00  0.00000000E+00
