2 Te4                                   
   1.00000000000000     
     7.7922735689886959    0.0527267858738169   -0.0850396711500989
    -1.9252304425052071    3.3334189046119587   -0.0000716402166813
    -0.2719796575145723   -0.1581485396780673   51.0383437529333506
   Mn   Ti   Pb   S 
     1     1     4     8
Direct
  0.3333330000000032  0.3333330000000032  0.3333330000000032
  0.8333330000000032  0.3333330000000032  0.3333330000000032
  0.0069491314815821  0.0069935786731470  0.4057548799570417
  0.5024660480798631  0.0023717723362900  0.4062069187721019
  0.1642009519201337  0.6642952276636995  0.2604600812279020
  0.6597178685184146  0.6596734213268497  0.2609121200429622
  0.3400038196559647  0.3398332388577264  0.4356613648433841
  0.8414245545699228  0.3415035252778164  0.4348249481622679
  0.3266621803440418  0.3268327611422800  0.2310046351566152
  0.8252414454300836  0.3251624747221900  0.2318410518377314
  0.9743129005451413  0.9743770059262217  0.3071990363804841
  0.5157839702515570  0.0152330107096466  0.3081771293326516
  0.1508830297484398  0.6514339892903502  0.3584898706673523
  0.6923540994548555  0.6922899940737751  0.3594679636195198
 
  0.00000000E+00  0.00000000E+00  0.00000000E+00
  0.00000000E+00  0.00000000E+00  0.00000000E+00
  0.00000000E+00  0.00000000E+00  0.00000000E+00
  0.00000000E+00  0.00000000E+00  0.00000000E+00
  0.00000000E+00  0.00000000E+00  0.00000000E+00
  0.00000000E+00  0.00000000E+00  0.00000000E+00
  0.00000000E+00  0.00000000E+00  0.00000000E+00
  0.00000000E+00  0.00000000E+00  0.00000000E+00
  0.00000000E+00  0.00000000E+00  0.00000000E+00
  0.00000000E+00  0.00000000E+00  0.00000000E+00
  0.00000000E+00  0.00000000E+00  0.00000000E+00
  0.00000000E+00  0.00000000E+00  0.00000000E+00
  0.00000000E+00  0.00000000E+00  0.00000000E+00
  0.00000000E+00  0.00000000E+00  0.00000000E+00
