2 Te4                                   
   1.00000000000000     
     8.1372399799709196   -0.0007090912215365   -0.0190328451908197
    -2.0346169865456387    3.5208121835494794   -0.0004001683230899
    -0.1487940963616987   -0.0909146347843698   46.4533826311688500
   Mn   Pb   Se
     2     4     8
Direct
  0.3333330000000032  0.3333330000000032  0.3333330000000032
  0.8333330000000032  0.3333330000000032  0.3333330000000032
  0.9993349750972538  0.9993089829189005  0.4140523123821860
  0.4993349750972538  0.9993089829189005  0.4140523123821860
  0.1673320249027430  0.6673580170810963  0.2526146876178179
  0.6673320249027430  0.6673580170810963  0.2526146876178179
  0.3347173841618528  0.3346781102237920  0.4488741347546732
  0.8347173841618527  0.3346781102237920  0.4488741347546732
  0.3319486158381536  0.3319878897762145  0.2177918652453261
  0.8319486158381537  0.3319878897762145  0.2177918652453261
  0.9971752189899356  0.9970222681758623  0.3040127165595663
  0.4971752189899355  0.9970222681758623  0.3040127165595663
  0.1694917810100613  0.6696447318241345  0.3626542834404376
  0.6694917810100612  0.6696447318241345  0.3626542834404376
 
  0.00000000E+00  0.00000000E+00  0.00000000E+00
  0.00000000E+00  0.00000000E+00  0.00000000E+00
  0.00000000E+00  0.00000000E+00  0.00000000E+00
  0.00000000E+00  0.00000000E+00  0.00000000E+00
  0.00000000E+00  0.00000000E+00  0.00000000E+00
  0.00000000E+00  0.00000000E+00  0.00000000E+00
  0.00000000E+00  0.00000000E+00  0.00000000E+00
  0.00000000E+00  0.00000000E+00  0.00000000E+00
  0.00000000E+00  0.00000000E+00  0.00000000E+00
  0.00000000E+00  0.00000000E+00  0.00000000E+00
  0.00000000E+00  0.00000000E+00  0.00000000E+00
  0.00000000E+00  0.00000000E+00  0.00000000E+00
  0.00000000E+00  0.00000000E+00  0.00000000E+00
  0.00000000E+00  0.00000000E+00  0.00000000E+00
