2 Te4                                   
   1.00000000000000     
     7.9310616946988581    0.0374629883408094   -0.0259377770299514
    -1.9665443732476058    3.4061532445738805    0.0000000100389489
    -0.0941710373746659   -0.0543697273410725   49.1288147330284346
   Mn   Ti   Sn   Se
     1     1     4     8
Direct
  0.3333330000000032  0.3333330000000032  0.3333330000000032
  0.8333330000000032  0.3333330000000032  0.3333330000000032
  0.0010860983265815  0.0010860999461713  0.4092500314367271
  0.4978785747515957  0.9978785743744112  0.4107167670003378
  0.1687884252484011  0.6687884256255856  0.2559502329996661
  0.6655809016734153  0.6655809000538255  0.2574169685632768
  0.3305427335006996  0.3305427337011295  0.4415721568627617
  0.8365076259852060  0.3365076237425129  0.4406131632976269
  0.3361232664993068  0.3361232662988769  0.2250938431372376
  0.8301583740148004  0.3301583762574936  0.2260528367023724
  0.9822546244905013  0.9822546217917747  0.3036571319212413
  0.5152580862449838  0.0152580833229621  0.3040000017176041
  0.1514089137550130  0.6514089166770347  0.3626669982823998
  0.6844123755094955  0.6844123782082221  0.3630098680787626
 
  0.00000000E+00  0.00000000E+00  0.00000000E+00
  0.00000000E+00  0.00000000E+00  0.00000000E+00
  0.00000000E+00  0.00000000E+00  0.00000000E+00
  0.00000000E+00  0.00000000E+00  0.00000000E+00
  0.00000000E+00  0.00000000E+00  0.00000000E+00
  0.00000000E+00  0.00000000E+00  0.00000000E+00
  0.00000000E+00  0.00000000E+00  0.00000000E+00
  0.00000000E+00  0.00000000E+00  0.00000000E+00
  0.00000000E+00  0.00000000E+00  0.00000000E+00
  0.00000000E+00  0.00000000E+00  0.00000000E+00
  0.00000000E+00  0.00000000E+00  0.00000000E+00
  0.00000000E+00  0.00000000E+00  0.00000000E+00
  0.00000000E+00  0.00000000E+00  0.00000000E+00
  0.00000000E+00  0.00000000E+00  0.00000000E+00
