2 Te4                                   
   1.00000000000000     
     7.9097833942400175   -0.0600926711419872   -0.0299671263283389
    -2.0034662490261064    3.4702987292336664   -0.0000554912424399
     0.0349736173994531    0.0194277020831315   48.6952897646555982
   Mn   Cr   Bi   S 
     1     1     4     8
Direct
  0.3333330000000032  0.3333330000000032  0.3333330000000032
  0.8333330000000032  0.3333330000000032  0.3333330000000032
  0.9988614138392208  0.9988588063177034  0.4019178064286752
  0.5010131114285428  0.0010297809693032  0.4021948001900899
  0.1656538885714540  0.6656372190306935  0.2644721998099140
  0.6678055861607760  0.6678081936822934  0.2647491935713287
  0.3308163576890711  0.3308098116505025  0.4325337277035235
  0.8297888312315093  0.3297988636580220  0.4323938244104008
  0.3358496423109353  0.3358561883495039  0.2341322722964758
  0.8368771687684972  0.3368671363419844  0.2342721755895985
  0.0074051259055592  0.0074660441189573  0.3045390607871505
  0.5155539162477321  0.0155573559307999  0.3058673424579506
  0.1511130837522649  0.6511096440691969  0.3607996575420533
  0.6592618740944374  0.6592009558810394  0.3621279392128534
 
  0.00000000E+00  0.00000000E+00  0.00000000E+00
  0.00000000E+00  0.00000000E+00  0.00000000E+00
  0.00000000E+00  0.00000000E+00  0.00000000E+00
  0.00000000E+00  0.00000000E+00  0.00000000E+00
  0.00000000E+00  0.00000000E+00  0.00000000E+00
  0.00000000E+00  0.00000000E+00  0.00000000E+00
  0.00000000E+00  0.00000000E+00  0.00000000E+00
  0.00000000E+00  0.00000000E+00  0.00000000E+00
  0.00000000E+00  0.00000000E+00  0.00000000E+00
  0.00000000E+00  0.00000000E+00  0.00000000E+00
  0.00000000E+00  0.00000000E+00  0.00000000E+00
  0.00000000E+00  0.00000000E+00  0.00000000E+00
  0.00000000E+00  0.00000000E+00  0.00000000E+00
  0.00000000E+00  0.00000000E+00  0.00000000E+00
