2 Te4                                   
   1.00000000000000     
     8.8209595157782115   -0.0025329041346247   -0.0003915788422259
    -2.2063381799955826    3.8214510433269475    0.0000032712518111
    -0.0019119511190252   -0.0010703936441922   39.4856084222586716
   Mn   Cd   Bi   Te
     1     1     4     8
Direct
  0.3333330000000032  0.3333330000000032  0.3333330000000032
  0.8333330000000032  0.3333330000000032  0.3333330000000032
  0.0009374469934328  0.0009325736628893  0.4282749080673020
  0.4988577364010723  0.9988553116422854  0.4285747709101441
  0.1678092635989245  0.6678116883577114  0.2380922290898599
  0.6657295530065639  0.6657344263371074  0.2383920919327019
  0.3309767810910213  0.3309851075689042  0.4723116772592121
  0.8358012159771401  0.3357985241123751  0.4719459254706200
  0.3356892189089851  0.3356808924311022  0.1943543227407871
  0.8308647840228663  0.3308674758876313  0.1947200745293794
  0.0074598879785362  0.0074488773872860  0.2921269358253960
  0.4921813278239774  0.9921852472794963  0.2925381684795582
  0.1744856721760193  0.6744817527205005  0.3741288315204457
  0.6592071120214608  0.6592181226127108  0.3745400641746079
 
  0.00000000E+00  0.00000000E+00  0.00000000E+00
  0.00000000E+00  0.00000000E+00  0.00000000E+00
  0.00000000E+00  0.00000000E+00  0.00000000E+00
  0.00000000E+00  0.00000000E+00  0.00000000E+00
  0.00000000E+00  0.00000000E+00  0.00000000E+00
  0.00000000E+00  0.00000000E+00  0.00000000E+00
  0.00000000E+00  0.00000000E+00  0.00000000E+00
  0.00000000E+00  0.00000000E+00  0.00000000E+00
  0.00000000E+00  0.00000000E+00  0.00000000E+00
  0.00000000E+00  0.00000000E+00  0.00000000E+00
  0.00000000E+00  0.00000000E+00  0.00000000E+00
  0.00000000E+00  0.00000000E+00  0.00000000E+00
  0.00000000E+00  0.00000000E+00  0.00000000E+00
  0.00000000E+00  0.00000000E+00  0.00000000E+00
