2 Te4                                   
   1.00000000000000     
     8.7573087144354265   -0.2333618578325410   -0.0652936315898611
    -2.2900572549110398    3.7504888710506918    0.0406858234107700
    -0.3180101235218999    0.2847303980138817   41.1927358961361776
   Mn   Pd   Sb   Te
     1     1     4     8
Direct
  0.3333330000000032  0.3333330000000032  0.3333330000000032
  0.8333330000000032  0.3333330000000032  0.3333330000000032
  0.0052498290957568 -0.0020468665115014  0.4208527577741736
  0.5077367314642051 -0.0181351129893322  0.4186923338638271
  0.1589302685357918  0.6848021129893288  0.2479746661361767
  0.6614171709042398  0.6687138665114980  0.2458142422258303
  0.3331454635375573  0.3513553805614573  0.4611296278266721
  0.8304162211733372  0.3155530158854357  0.4606971373307944
  0.3335205364624492  0.3153106194385492  0.2055363721733271
  0.8362497788266692  0.3511129841145707  0.2059688626692046
  0.0002907886756758  0.9399431257029374  0.2964731639447292
  0.5248181410125778  0.0145979640293843  0.2974557015685071
  0.1418488589874192  0.6520690359706126  0.3692112984314967
  0.6663762113243211  0.7267238742970594  0.3701938360552747
 
  0.00000000E+00  0.00000000E+00  0.00000000E+00
  0.00000000E+00  0.00000000E+00  0.00000000E+00
  0.00000000E+00  0.00000000E+00  0.00000000E+00
  0.00000000E+00  0.00000000E+00  0.00000000E+00
  0.00000000E+00  0.00000000E+00  0.00000000E+00
  0.00000000E+00  0.00000000E+00  0.00000000E+00
  0.00000000E+00  0.00000000E+00  0.00000000E+00
  0.00000000E+00  0.00000000E+00  0.00000000E+00
  0.00000000E+00  0.00000000E+00  0.00000000E+00
  0.00000000E+00  0.00000000E+00  0.00000000E+00
  0.00000000E+00  0.00000000E+00  0.00000000E+00
  0.00000000E+00  0.00000000E+00  0.00000000E+00
  0.00000000E+00  0.00000000E+00  0.00000000E+00
  0.00000000E+00  0.00000000E+00  0.00000000E+00
