2 Te4                                   
   1.00000000000000     
     8.5097540463656856    0.0095584576729982    0.0140094823597767
    -2.1232992805332982    3.6776272375076413   -0.0000008596135876
     0.0359918699451139    0.0207896853493360   42.4957498166360352
   Mn   Zr   Sn   Te
     1     1     4     8
Direct
  0.3333330000000032  0.3333330000000032  0.3333330000000032
  0.8333330000000032  0.3333330000000032  0.3333330000000032
  0.0030749261819455  0.0030763159052923  0.4282530692471719
  0.4958371413877057  0.9958342645054195  0.4313723074368399
  0.1708298586122910  0.6708327354945773  0.2352946925631640
  0.6635920738180512  0.6635906840947043  0.2384139307528322
  0.3284765500668078  0.3284707345020920  0.4697375679167829
  0.8367834872081643  0.3367831652700635  0.4676248300712003
  0.3381894499331987  0.3381952654979145  0.1969284320832163
  0.8298825127918421  0.3298828347299500  0.1990411699287990
  0.9932080825316655  0.9932101319726799  0.2930499082277402
  0.4985504604480561  0.9985449354858579  0.2949946148752119
  0.1681165395519407  0.6681220645141389  0.3716723851247920
  0.6734589174683313  0.6734568680273169  0.3736170917722637
 
  0.00000000E+00  0.00000000E+00  0.00000000E+00
  0.00000000E+00  0.00000000E+00  0.00000000E+00
  0.00000000E+00  0.00000000E+00  0.00000000E+00
  0.00000000E+00  0.00000000E+00  0.00000000E+00
  0.00000000E+00  0.00000000E+00  0.00000000E+00
  0.00000000E+00  0.00000000E+00  0.00000000E+00
  0.00000000E+00  0.00000000E+00  0.00000000E+00
  0.00000000E+00  0.00000000E+00  0.00000000E+00
  0.00000000E+00  0.00000000E+00  0.00000000E+00
  0.00000000E+00  0.00000000E+00  0.00000000E+00
  0.00000000E+00  0.00000000E+00  0.00000000E+00
  0.00000000E+00  0.00000000E+00  0.00000000E+00
  0.00000000E+00  0.00000000E+00  0.00000000E+00
  0.00000000E+00  0.00000000E+00  0.00000000E+00
