2 Te4                                   
   1.00000000000000     
     8.4651206484096910    0.0303190938985198    0.0020704819603325
    -2.1031518304641530    3.6427865393308614    0.0000489302958783
     0.0058345736007501    0.0035877701051516   43.0672330546700906
   Mn   Nb   Sn   Te
     1     1     4     8
Direct
  0.3333330000000032  0.3333330000000032  0.3333330000000032
  0.8333330000000032  0.3333330000000032  0.3333330000000032
  0.0001322435119938  0.0001386424778993  0.4254913487128261
  0.4998162903792905 -0.0001792257449342  0.4274575126033181
  0.1668507096207062  0.6668462257449309  0.2392094873966858
  0.6665347564880029  0.6665283575220974  0.2411756512871779
  0.3296835435929700  0.3296832601808856  0.4655044581820825
  0.8358534994471541  0.3358478753000760  0.4648491544591183
  0.3369824564070364  0.3369827398191208  0.2011615418179167
  0.8308125005528523  0.3308181246999304  0.2018168455408810
  0.9876549213006542  0.9876528878846652  0.2951486293393121
  0.5056165081051135  0.0056424584407294  0.2962633101590982
  0.1610504918948836  0.6610245415592675  0.3704036898409057
  0.6790120786993425  0.6790141121153316  0.3715183706606918
 
  0.00000000E+00  0.00000000E+00  0.00000000E+00
  0.00000000E+00  0.00000000E+00  0.00000000E+00
  0.00000000E+00  0.00000000E+00  0.00000000E+00
  0.00000000E+00  0.00000000E+00  0.00000000E+00
  0.00000000E+00  0.00000000E+00  0.00000000E+00
  0.00000000E+00  0.00000000E+00  0.00000000E+00
  0.00000000E+00  0.00000000E+00  0.00000000E+00
  0.00000000E+00  0.00000000E+00  0.00000000E+00
  0.00000000E+00  0.00000000E+00  0.00000000E+00
  0.00000000E+00  0.00000000E+00  0.00000000E+00
  0.00000000E+00  0.00000000E+00  0.00000000E+00
  0.00000000E+00  0.00000000E+00  0.00000000E+00
  0.00000000E+00  0.00000000E+00  0.00000000E+00
  0.00000000E+00  0.00000000E+00  0.00000000E+00
