2 Te4                                   
   1.00000000000000     
     7.6159675539077787    0.0134442136124819   -0.0787301023438277
    -1.8981708710634120    3.2876990415674849    0.0000217927287697
    -0.3139735643899590   -0.1808940425226666   53.0990495124011801
   Mn   Cr   Sn   S 
     1     1     4     8
Direct
  0.3333330000000032  0.3333330000000032  0.3333330000000032
  0.8333330000000032  0.3333330000000032  0.3333330000000032
  0.0035412359868288  0.0035443612202971  0.3963920585607850
  0.5020295123765550  0.0020324124827379  0.3977300240514987
  0.1646374876234491  0.6646345875172587  0.2689369759485052
  0.6631257640131680  0.6631226387796998  0.2702749414392189
  0.3321347193161912  0.3321289874118769  0.4241669885995532
  0.8471806796078067  0.3471782488360672  0.4233828550016212
  0.3345312806838153  0.3345370125881295  0.2424990114004464
  0.8194853203921997  0.3194877511639392  0.2432831449983780
  0.9827472683590546  0.9827542388553084  0.3087557521284129
  0.5158298004221061  0.0158156995560553  0.3071373067004215
  0.1508371995778905  0.6508513004439415  0.3595296932995824
  0.6839197316409422  0.6839127611446884  0.3579112478715910
 
  0.00000000E+00  0.00000000E+00  0.00000000E+00
  0.00000000E+00  0.00000000E+00  0.00000000E+00
  0.00000000E+00  0.00000000E+00  0.00000000E+00
  0.00000000E+00  0.00000000E+00  0.00000000E+00
  0.00000000E+00  0.00000000E+00  0.00000000E+00
  0.00000000E+00  0.00000000E+00  0.00000000E+00
  0.00000000E+00  0.00000000E+00  0.00000000E+00
  0.00000000E+00  0.00000000E+00  0.00000000E+00
  0.00000000E+00  0.00000000E+00  0.00000000E+00
  0.00000000E+00  0.00000000E+00  0.00000000E+00
  0.00000000E+00  0.00000000E+00  0.00000000E+00
  0.00000000E+00  0.00000000E+00  0.00000000E+00
  0.00000000E+00  0.00000000E+00  0.00000000E+00
  0.00000000E+00  0.00000000E+00  0.00000000E+00
