2 Te4                                   
   1.00000000000000     
     8.0239159561191080    0.1716935915099807    0.1261667446823596
    -1.9316313333175779    3.3456819443434123   -0.0001619382586725
     0.5292630890015014    0.3032402549050714   48.9783808281539592
   Mn   Cu   Bi   S 
     1     1     4     8
Direct
  0.3333330000000032  0.3333330000000032  0.3333330000000032
  0.8333330000000032  0.3333330000000032  0.3333330000000032
  0.9979912445364814  0.9980558078243837  0.4011016713368371
  0.5004426585113770  0.0005665538085633  0.3993026570835870
  0.1662243414886196  0.6661004461914336  0.2673643429164169
  0.6686757554635154  0.6686111921756130  0.2655653286631668
  0.3308766235010620  0.3310422942014934  0.4299570492340274
  0.8348156854387061  0.3349215975174360  0.4315197564729251
  0.3357893764989445  0.3356237057985130  0.2367089507659718
  0.8318503145613003  0.3317444024825704  0.2351462435270743
  0.9773194266917892  0.9772882341458220  0.3086468101894609
  0.4683041998160047  0.9682846204240715  0.3037487063451199
  0.1983628001839920  0.6983823795759253  0.3629182936548840
  0.6893475733082076  0.6893787658541748  0.3580201898105430
 
  0.00000000E+00  0.00000000E+00  0.00000000E+00
  0.00000000E+00  0.00000000E+00  0.00000000E+00
  0.00000000E+00  0.00000000E+00  0.00000000E+00
  0.00000000E+00  0.00000000E+00  0.00000000E+00
  0.00000000E+00  0.00000000E+00  0.00000000E+00
  0.00000000E+00  0.00000000E+00  0.00000000E+00
  0.00000000E+00  0.00000000E+00  0.00000000E+00
  0.00000000E+00  0.00000000E+00  0.00000000E+00
  0.00000000E+00  0.00000000E+00  0.00000000E+00
  0.00000000E+00  0.00000000E+00  0.00000000E+00
  0.00000000E+00  0.00000000E+00  0.00000000E+00
  0.00000000E+00  0.00000000E+00  0.00000000E+00
  0.00000000E+00  0.00000000E+00  0.00000000E+00
  0.00000000E+00  0.00000000E+00  0.00000000E+00
