2 Te4                                   
   1.00000000000000     
     7.7392838257224605    0.0314272679256585   -0.0174140984537021
    -1.9212134234786460    3.3276391678907320    0.0000006497360759
    -0.0707864264473129   -0.0408575671593421   51.5535693762936305
   Mn   Ni   Sb   S 
     1     1     4     8
Direct
  0.3333330000000032  0.3333330000000032  0.3333330000000032
  0.8333330000000032  0.3333330000000032  0.3333330000000032
  0.9930617779266343  0.9930625241427936  0.3949159965879987
  0.5009309597046926  0.0009312062238879  0.3964855718721366
  0.1657360402953043  0.6657357937761090  0.2701814281278673
  0.6736052220733625  0.6736044758572032  0.2717510034120052
  0.3421455869323923  0.3421459317933679  0.4239206761028366
  0.8269026323982193  0.3269048038754832  0.4235901914616436
  0.3245204130676141  0.3245200682066385  0.2427453238971627
  0.8397633676017872  0.3397611961245233  0.2430758085383557
  0.9831165671376679  0.9831146773426819  0.3078628297889032
  0.5144589512831300  0.0144574239376234  0.3078496563420632
  0.1522080487168667  0.6522095760623734  0.3588173436579407
  0.6835504328623289  0.6835523226573149  0.3588041702111007
 
  0.00000000E+00  0.00000000E+00  0.00000000E+00
  0.00000000E+00  0.00000000E+00  0.00000000E+00
  0.00000000E+00  0.00000000E+00  0.00000000E+00
  0.00000000E+00  0.00000000E+00  0.00000000E+00
  0.00000000E+00  0.00000000E+00  0.00000000E+00
  0.00000000E+00  0.00000000E+00  0.00000000E+00
  0.00000000E+00  0.00000000E+00  0.00000000E+00
  0.00000000E+00  0.00000000E+00  0.00000000E+00
  0.00000000E+00  0.00000000E+00  0.00000000E+00
  0.00000000E+00  0.00000000E+00  0.00000000E+00
  0.00000000E+00  0.00000000E+00  0.00000000E+00
  0.00000000E+00  0.00000000E+00  0.00000000E+00
  0.00000000E+00  0.00000000E+00  0.00000000E+00
  0.00000000E+00  0.00000000E+00  0.00000000E+00
