2 Te4                                   
   1.00000000000000     
     8.5662846269350919   -0.0278449742060446   -0.0024817397301752
    -2.1536276220209771    3.7307891848560861    0.0000861110103004
    -0.0109524394585741   -0.0053769313187976   41.7189588535060736
   Mn   Fe   Sb   Te
     1     1     4     8
Direct
  0.3333330000000032  0.3333330000000032  0.3333330000000032
  0.8333330000000032  0.3333330000000032  0.3333330000000032
  0.0000882978385676  0.0000980830454254  0.4211873447687957
  0.5026615037639581  0.0026835465849352  0.4204424951767008
  0.1640054962360387  0.6639834534150616  0.2462245048233032
  0.6665787021614292  0.6665689169545714  0.2454796552312082
  0.3354270851160913  0.3354227793878278  0.4610536852280601
  0.8307674772504172  0.3307650223875430  0.4614914854168939
  0.3312389148839152  0.3312432206121786  0.2056123147719393
  0.8358985227495892  0.3359009776124634  0.2051745145831054
  0.9955973314314865  0.9956479418876617  0.2958409864859000
  0.5078111769830487  0.0077973753449006  0.2955217355983606
  0.1588558230169483  0.6588696246550962  0.3711452644016432
  0.6710696685685102  0.6710190581123351  0.3708260135141039
 
  0.00000000E+00  0.00000000E+00  0.00000000E+00
  0.00000000E+00  0.00000000E+00  0.00000000E+00
  0.00000000E+00  0.00000000E+00  0.00000000E+00
  0.00000000E+00  0.00000000E+00  0.00000000E+00
  0.00000000E+00  0.00000000E+00  0.00000000E+00
  0.00000000E+00  0.00000000E+00  0.00000000E+00
  0.00000000E+00  0.00000000E+00  0.00000000E+00
  0.00000000E+00  0.00000000E+00  0.00000000E+00
  0.00000000E+00  0.00000000E+00  0.00000000E+00
  0.00000000E+00  0.00000000E+00  0.00000000E+00
  0.00000000E+00  0.00000000E+00  0.00000000E+00
  0.00000000E+00  0.00000000E+00  0.00000000E+00
  0.00000000E+00  0.00000000E+00  0.00000000E+00
  0.00000000E+00  0.00000000E+00  0.00000000E+00
