2 Te4                                   
   1.00000000000000     
     7.6078667819090553    0.0857026790524699   -0.0579747184349397
    -1.8648567825152880    3.2299875392910424    0.0000013853303122
    -0.4467172197085795   -0.2579006860204962   53.8106365304568541
   Mn   Nb   Sn   S 
     1     1     4     8
Direct
  0.3333330000000032  0.3333330000000032  0.3333330000000032
  0.8333330000000032  0.3333330000000032  0.3333330000000032
  0.0128455791667493  0.0128450835981725  0.4033419062069159
  0.5073535039365770  0.0073544796086782  0.4051415897055495
  0.1593134960634198  0.6593125203913186  0.2615254102944544
  0.6538214208332476  0.6538219164018242  0.2633250937930880
  0.3426275378829160  0.3426265245881729  0.4317468682225299
  0.8495354164306321  0.3495342399523358  0.4301761298726295
  0.3240384621170904  0.3240394754118335  0.2349191317774695
  0.8171305835693743  0.3171317600476706  0.2364898701273698
  0.9666306482605169  0.9666330637769770  0.3062076903344400
  0.5118632656944619  0.0118587630362209  0.3086914202261170
  0.1548037343055350  0.6548082369637759  0.3579755797738869
  0.7000363517394799  0.7000339362230198  0.3604593096655639
 
  0.00000000E+00  0.00000000E+00  0.00000000E+00
  0.00000000E+00  0.00000000E+00  0.00000000E+00
  0.00000000E+00  0.00000000E+00  0.00000000E+00
  0.00000000E+00  0.00000000E+00  0.00000000E+00
  0.00000000E+00  0.00000000E+00  0.00000000E+00
  0.00000000E+00  0.00000000E+00  0.00000000E+00
  0.00000000E+00  0.00000000E+00  0.00000000E+00
  0.00000000E+00  0.00000000E+00  0.00000000E+00
  0.00000000E+00  0.00000000E+00  0.00000000E+00
  0.00000000E+00  0.00000000E+00  0.00000000E+00
  0.00000000E+00  0.00000000E+00  0.00000000E+00
  0.00000000E+00  0.00000000E+00  0.00000000E+00
  0.00000000E+00  0.00000000E+00  0.00000000E+00
  0.00000000E+00  0.00000000E+00  0.00000000E+00
