2 Te4                                   
   1.00000000000000     
     8.1503361533801293    0.0016225490735990   -0.0068781804642524
    -2.0368824018551184    3.5279780839017718    0.0000003725155004
    -0.0220169336429448   -0.0127062675675458   46.2764329059728823
   Mn   Cd   Sb   Se
     1     1     4     8
Direct
  0.3333330000000032  0.3333330000000032  0.3333330000000032
  0.8333330000000032  0.3333330000000032  0.3333330000000032
  0.0011801925937042  0.0011800885339864  0.4086435113992115
  0.4981459043190909  0.9981458898608128  0.4084095932726214
  0.1685210956809059  0.6685211101391840  0.2582574067273825
  0.6654868074062925  0.6654869114660176  0.2580234886007924
  0.3299736582629523  0.3299736927742297  0.4415510848286146
  0.8366289946047589  0.3366290993903049  0.4414307848552353
  0.3366923417370541  0.3366923072257767  0.2251149151713847
  0.8300370053952475  0.3300369006097015  0.2252352151447640
  0.0089724076995351  0.0089723554573118  0.2999159349506501
  0.4906834943506490  0.9906836586103951  0.3002814458655663
  0.1759835056493479  0.6759833413896017  0.3663855541344376
  0.6576945923004618  0.6576946445426850  0.3667510650493538
 
  0.00000000E+00  0.00000000E+00  0.00000000E+00
  0.00000000E+00  0.00000000E+00  0.00000000E+00
  0.00000000E+00  0.00000000E+00  0.00000000E+00
  0.00000000E+00  0.00000000E+00  0.00000000E+00
  0.00000000E+00  0.00000000E+00  0.00000000E+00
  0.00000000E+00  0.00000000E+00  0.00000000E+00
  0.00000000E+00  0.00000000E+00  0.00000000E+00
  0.00000000E+00  0.00000000E+00  0.00000000E+00
  0.00000000E+00  0.00000000E+00  0.00000000E+00
  0.00000000E+00  0.00000000E+00  0.00000000E+00
  0.00000000E+00  0.00000000E+00  0.00000000E+00
  0.00000000E+00  0.00000000E+00  0.00000000E+00
  0.00000000E+00  0.00000000E+00  0.00000000E+00
  0.00000000E+00  0.00000000E+00  0.00000000E+00
