2 Te4                                   
   1.00000000000000     
     8.8695835507784029    0.1603565678159547   -0.0096157336024142
    -2.1478817186213655    3.7167370075288413   -0.0003768821131314
    -0.0403904036731338   -0.0269063350015527   39.9514567154409406
   Mn   Ag   Bi   Te
     1     1     4     8
Direct
  0.3333330000000032  0.3333330000000032  0.3333330000000032
  0.8333330000000032  0.3333330000000032  0.3333330000000032
  0.9959417084017922  0.9957941476550650  0.4276490366867298
  0.4956993655549292  0.9955591498461543  0.4249868591869406
  0.1709676344450676  0.6711078501538424  0.2416801408130632
  0.6707252915982046  0.6708728523449318  0.2390179633132742
  0.3312824343977427  0.3314122835439545  0.4696505803080000
  0.8346518974516335  0.3345587436186441  0.4707709771243507
  0.3353835656022637  0.3352537164560519  0.1970154196919994
  0.8320141025483729  0.3321072563813623  0.1958950228756487
  0.9950125329785698  0.9945840225713707  0.2948068196266112
  0.4814939257416730  0.9813803864561566  0.2931008400805207
  0.1851730742583238  0.6852866135438402  0.3735661599194832
  0.6716544670214269  0.6720829774286261  0.3718601803733927
 
  0.00000000E+00  0.00000000E+00  0.00000000E+00
  0.00000000E+00  0.00000000E+00  0.00000000E+00
  0.00000000E+00  0.00000000E+00  0.00000000E+00
  0.00000000E+00  0.00000000E+00  0.00000000E+00
  0.00000000E+00  0.00000000E+00  0.00000000E+00
  0.00000000E+00  0.00000000E+00  0.00000000E+00
  0.00000000E+00  0.00000000E+00  0.00000000E+00
  0.00000000E+00  0.00000000E+00  0.00000000E+00
  0.00000000E+00  0.00000000E+00  0.00000000E+00
  0.00000000E+00  0.00000000E+00  0.00000000E+00
  0.00000000E+00  0.00000000E+00  0.00000000E+00
  0.00000000E+00  0.00000000E+00  0.00000000E+00
  0.00000000E+00  0.00000000E+00  0.00000000E+00
  0.00000000E+00  0.00000000E+00  0.00000000E+00
