2 Te4                                   
   1.00000000000000     
     8.7210588973916785   -0.0051227804630814   -0.0032599681076712
    -2.1825262409837398    3.7707702858611549   -0.0011153596892283
    -0.0125547403410221   -0.0205059866588935   40.4817710861167868
   Mn   Sc   Sb   Te
     1     1     4     8
Direct
  0.3333330000000032  0.3333330000000032  0.3333330000000032
  0.8333330000000032  0.3333330000000032  0.3333330000000032
  0.9979719039570550  0.9991159101927628  0.4249163316421037
  0.4971170595359952  0.9974853526190051  0.4298899720071029
  0.1695499404640016  0.6691816473809917  0.2367770279929008
  0.6686950960429418  0.6675510898072340  0.2417506683579001
  0.3329368316738042  0.3320150668267232  0.4678686696954512
  0.8363141471125102  0.3364614759173984  0.4665554147919144
  0.3337291683262023  0.3346509331732832  0.1987973303045482
  0.8303518528874962  0.3302045240826080  0.2001105852080848
  0.9978691619557242  0.9983248740600272  0.2924135292144741
  0.4988506364208265  0.9994349892857968  0.2931187101631467
  0.1678163635791703  0.6672320107142000  0.3735482898368572
  0.6687978380442726  0.6683421259399696  0.3742534707855298
 
  0.00000000E+00  0.00000000E+00  0.00000000E+00
  0.00000000E+00  0.00000000E+00  0.00000000E+00
  0.00000000E+00  0.00000000E+00  0.00000000E+00
  0.00000000E+00  0.00000000E+00  0.00000000E+00
  0.00000000E+00  0.00000000E+00  0.00000000E+00
  0.00000000E+00  0.00000000E+00  0.00000000E+00
  0.00000000E+00  0.00000000E+00  0.00000000E+00
  0.00000000E+00  0.00000000E+00  0.00000000E+00
  0.00000000E+00  0.00000000E+00  0.00000000E+00
  0.00000000E+00  0.00000000E+00  0.00000000E+00
  0.00000000E+00  0.00000000E+00  0.00000000E+00
  0.00000000E+00  0.00000000E+00  0.00000000E+00
  0.00000000E+00  0.00000000E+00  0.00000000E+00
  0.00000000E+00  0.00000000E+00  0.00000000E+00
