2 Te4                                   
   1.00000000000000     
     8.2390557376999798   -0.0047347562819823   -0.0024375255513714
    -2.0618150873500114    3.5711490030779549    0.0000159513124461
    -0.0116198708116291   -0.0064999933613889   45.2449076211105634
   Mn   V    Bi   Se
     1     1     4     8
Direct
  0.3333330000000032  0.3333330000000032  0.3333330000000032
  0.8333330000000032  0.3333330000000032  0.3333330000000032
  0.9988773517105397  0.9988776454883689  0.4100448605612675
  0.5010827483406148  0.0010818029270562  0.4110778284843953
  0.1655842516593819  0.6655851970729406  0.2555891715156086
  0.6677896482894571  0.6677893545116279  0.2566221394387364
  0.3341971704665796  0.3341961307143306  0.4457596038676868
  0.8327932083614257  0.3327922039369775  0.4456776275315122
  0.3324688295334268  0.3324698692856758  0.2209063961323126
  0.8338727916385807  0.3338737960630289  0.2209883724684870
  0.9981619959456284  0.9981618842956665  0.3016754869438677
  0.5017354912035483  0.0017355466597964  0.3013936113759964
  0.1649315087964484  0.6649314533402005  0.3652733886240075
  0.6685050040543684  0.6685051157043302  0.3649915130561362
 
  0.00000000E+00  0.00000000E+00  0.00000000E+00
  0.00000000E+00  0.00000000E+00  0.00000000E+00
  0.00000000E+00  0.00000000E+00  0.00000000E+00
  0.00000000E+00  0.00000000E+00  0.00000000E+00
  0.00000000E+00  0.00000000E+00  0.00000000E+00
  0.00000000E+00  0.00000000E+00  0.00000000E+00
  0.00000000E+00  0.00000000E+00  0.00000000E+00
  0.00000000E+00  0.00000000E+00  0.00000000E+00
  0.00000000E+00  0.00000000E+00  0.00000000E+00
  0.00000000E+00  0.00000000E+00  0.00000000E+00
  0.00000000E+00  0.00000000E+00  0.00000000E+00
  0.00000000E+00  0.00000000E+00  0.00000000E+00
  0.00000000E+00  0.00000000E+00  0.00000000E+00
  0.00000000E+00  0.00000000E+00  0.00000000E+00
