2 Te4                                   
   1.00000000000000     
     8.4732334974360022    0.0129971001008935    0.0324060353774029
    -2.1126823688396397    3.6591490266480795    0.0000853250950980
     0.1389004674034459    0.0811776531949170   42.8849037010682821
   Mn   Ni   Pb   Te
     1     1     4     8
Direct
  0.3333330000000032  0.3333330000000032  0.3333330000000032
  0.8333330000000032  0.3333330000000032  0.3333330000000032
  0.9989465911762700  0.9989451753301141  0.4258419905287099
  0.5030163086600387  0.0030145275656208  0.4237813893809922
  0.1636506913399581  0.6636524724343762  0.2428856106190116
  0.6677204088237267  0.6677218246698827  0.2408250094712940
  0.3382033187553042  0.3382065219372530  0.4656318498452844
  0.8263965327303842  0.3263989880642231  0.4672840465861543
  0.3284626812447022  0.3284594780627534  0.2010341501547149
  0.8402694672696223  0.3402670119357833  0.1993819534138449
  0.9746625053638852  0.9746656467583307  0.3026991358294602
  0.5155014381083521  0.0154952219064687  0.2995185611676776
  0.1511655618916447  0.6511717780935280  0.3671484388323263
  0.6920044946361116  0.6920013532416732  0.3639678641705437
 
  0.00000000E+00  0.00000000E+00  0.00000000E+00
  0.00000000E+00  0.00000000E+00  0.00000000E+00
  0.00000000E+00  0.00000000E+00  0.00000000E+00
  0.00000000E+00  0.00000000E+00  0.00000000E+00
  0.00000000E+00  0.00000000E+00  0.00000000E+00
  0.00000000E+00  0.00000000E+00  0.00000000E+00
  0.00000000E+00  0.00000000E+00  0.00000000E+00
  0.00000000E+00  0.00000000E+00  0.00000000E+00
  0.00000000E+00  0.00000000E+00  0.00000000E+00
  0.00000000E+00  0.00000000E+00  0.00000000E+00
  0.00000000E+00  0.00000000E+00  0.00000000E+00
  0.00000000E+00  0.00000000E+00  0.00000000E+00
  0.00000000E+00  0.00000000E+00  0.00000000E+00
  0.00000000E+00  0.00000000E+00  0.00000000E+00
