2 Te4                                   
   1.00000000000000     
     8.5582922005962292    0.0047278232583658    0.0020066931493255
    -2.1375280455606829    3.7008121131830731   -0.0010001480120014
    -0.0147580665505221   -0.0182400399112318   42.0037678688601872
   Mn   Pd   Pb   Te
     1     1     4     8
Direct
  0.3333330000000032  0.3333330000000032  0.3333330000000032
  0.8333330000000032  0.3333330000000032  0.3333330000000032
  0.9974407226124166  0.9973050691336727  0.4265135987028105
  0.5014768641333704  0.0014852121742424  0.4253495996400505
  0.1651901358666265  0.6651817878257545  0.2413174003599536
  0.6692262773875802  0.6693619308663241  0.2401534012971933
  0.3370621603293452  0.3371381555962684  0.4669138238862590
  0.8291477979630374  0.3290992906454556  0.4683450754749572
  0.3296038396706612  0.3295278444037381  0.1997521761137404
  0.8375182020369690  0.3375667093545509  0.1983209245250421
  0.9827475282714062  0.9827684311813401  0.3014615329117762
  0.5133346235124537  0.0133055269618000  0.2990016457890738
  0.1533323764875431  0.6533614730381969  0.3676653542109301
  0.6839194717285906  0.6838985688186567  0.3652054670882277
 
  0.00000000E+00  0.00000000E+00  0.00000000E+00
  0.00000000E+00  0.00000000E+00  0.00000000E+00
  0.00000000E+00  0.00000000E+00  0.00000000E+00
  0.00000000E+00  0.00000000E+00  0.00000000E+00
  0.00000000E+00  0.00000000E+00  0.00000000E+00
  0.00000000E+00  0.00000000E+00  0.00000000E+00
  0.00000000E+00  0.00000000E+00  0.00000000E+00
  0.00000000E+00  0.00000000E+00  0.00000000E+00
  0.00000000E+00  0.00000000E+00  0.00000000E+00
  0.00000000E+00  0.00000000E+00  0.00000000E+00
  0.00000000E+00  0.00000000E+00  0.00000000E+00
  0.00000000E+00  0.00000000E+00  0.00000000E+00
  0.00000000E+00  0.00000000E+00  0.00000000E+00
  0.00000000E+00  0.00000000E+00  0.00000000E+00
