2 Te4                                   
   1.00000000000000     
     8.4442217617106525   -0.0079361987249723   -0.0127850986457004
    -2.1142345147996306    3.6419753398498331   -0.0061730895506623
    -0.1019797553203965   -0.1373035893287834   43.2968634931879350
   Mn   Co   Sn   Te
     1     1     4     8
Direct
  0.3333330000000032  0.3333330000000032  0.3333330000000032
  0.8333330000000032  0.3333330000000032  0.3333330000000032
  0.9982577706112987  0.9979807358862625  0.4199917883050759
  0.5004662030614669  0.0012401620421299  0.4179986472742175
  0.1662007969385298  0.6654268379578667  0.2486683527257866
  0.6684092293886981  0.6686862641137343  0.2466752116949209
  0.3373115861160061  0.3381452955242534  0.4574217229473696
  0.8303932439946939  0.3302630294605815  0.4582739469597810
  0.3293544138840003  0.3285207044757530  0.2092442770526298
  0.8362727560053125  0.3364029705394249  0.2083920530402181
  0.9891735437034442  0.9916107574638623  0.2986146273420150
  0.5138463719349846  0.0166605307539895  0.2974627965134915
  0.1528206280650123  0.6500064692460072  0.3692042034865124
  0.6774934562965526  0.6750562425361345  0.3680523726579889
 
  0.00000000E+00  0.00000000E+00  0.00000000E+00
  0.00000000E+00  0.00000000E+00  0.00000000E+00
  0.00000000E+00  0.00000000E+00  0.00000000E+00
  0.00000000E+00  0.00000000E+00  0.00000000E+00
  0.00000000E+00  0.00000000E+00  0.00000000E+00
  0.00000000E+00  0.00000000E+00  0.00000000E+00
  0.00000000E+00  0.00000000E+00  0.00000000E+00
  0.00000000E+00  0.00000000E+00  0.00000000E+00
  0.00000000E+00  0.00000000E+00  0.00000000E+00
  0.00000000E+00  0.00000000E+00  0.00000000E+00
  0.00000000E+00  0.00000000E+00  0.00000000E+00
  0.00000000E+00  0.00000000E+00  0.00000000E+00
  0.00000000E+00  0.00000000E+00  0.00000000E+00
  0.00000000E+00  0.00000000E+00  0.00000000E+00
