2 Te4                                   
   1.00000000000000     
     7.7740374386045730   -0.0008465658643372   -0.0459299006009734
    -1.9438754483683858    3.3674087205599630    0.0002071988302099
    -0.3776165149555996   -0.2150473011082206   50.8418107113942384
   Mn   V    Pb   S 
     1     1     4     8
Direct
  0.3333330000000032  0.3333330000000032  0.3333330000000032
  0.8333330000000032  0.3333330000000032  0.3333330000000032
  0.9991660267182909  0.9991539204138082  0.4022644171071645
  0.4985982402490995  0.9985505136755208  0.4029729081593589
  0.1680687597508973  0.6681164863244760  0.2636940918406450
  0.6675009732817059  0.6675130795861886  0.2644025828928394
  0.3315736005150018  0.3315675265433175  0.4322569569278275
  0.8398250409020970  0.3398856251862279  0.4318335150755206
  0.3350923994850046  0.3350984734566889  0.2344090430721719
  0.8268409590979094  0.3267803748137785  0.2348324849244787
  0.9834049784001357  0.9833092210820648  0.3076523474870294
  0.5142891039194633  0.0142514584902768  0.3074557661411758
  0.1523778960805336  0.6524155415097199  0.3592112338588281
  0.6832620215998610  0.6833577789179320  0.3590146525129745
 
  0.00000000E+00  0.00000000E+00  0.00000000E+00
  0.00000000E+00  0.00000000E+00  0.00000000E+00
  0.00000000E+00  0.00000000E+00  0.00000000E+00
  0.00000000E+00  0.00000000E+00  0.00000000E+00
  0.00000000E+00  0.00000000E+00  0.00000000E+00
  0.00000000E+00  0.00000000E+00  0.00000000E+00
  0.00000000E+00  0.00000000E+00  0.00000000E+00
  0.00000000E+00  0.00000000E+00  0.00000000E+00
  0.00000000E+00  0.00000000E+00  0.00000000E+00
  0.00000000E+00  0.00000000E+00  0.00000000E+00
  0.00000000E+00  0.00000000E+00  0.00000000E+00
  0.00000000E+00  0.00000000E+00  0.00000000E+00
  0.00000000E+00  0.00000000E+00  0.00000000E+00
  0.00000000E+00  0.00000000E+00  0.00000000E+00
