2 Te4                                   
   1.00000000000000     
     8.6734145055503191   -0.0018157226224447   -0.0069723545029204
    -2.1691408023705581    3.7570530466918122   -0.0000055577315404
    -0.0333596908229233   -0.0193246529751275   40.8438245924165244
   Mn   Cd   Sb   Te
     1     1     4     8
Direct
  0.3333330000000032  0.3333330000000032  0.3333330000000032
  0.8333330000000032  0.3333330000000032  0.3333330000000032
  0.0008521593932221  0.0008518266732255  0.4237201949562099
  0.4989321415247800  0.9989318580609513  0.4239380252892954
  0.1677348584752167  0.6677351419390455  0.2427289747107085
  0.6658148406067746  0.6658151733267712  0.2429468050437940
  0.3301482166964476  0.3301481449986694  0.4647561134009565
  0.8363044125772896  0.3363041714729020  0.4645236577989775
  0.3365177833035589  0.3365178550013370  0.2019098865990427
  0.8303615874227168  0.3303618285271044  0.2021423422010218
  0.0077070539296629  0.0077064088955831  0.2925197589139922
  0.4918737167205532  0.9918736587370206  0.2930041320891230
  0.1747932832794437  0.6747933412629762  0.3736628679108809
  0.6589599460703338  0.6589605911044208  0.3741472410860117
 
  0.00000000E+00  0.00000000E+00  0.00000000E+00
  0.00000000E+00  0.00000000E+00  0.00000000E+00
  0.00000000E+00  0.00000000E+00  0.00000000E+00
  0.00000000E+00  0.00000000E+00  0.00000000E+00
  0.00000000E+00  0.00000000E+00  0.00000000E+00
  0.00000000E+00  0.00000000E+00  0.00000000E+00
  0.00000000E+00  0.00000000E+00  0.00000000E+00
  0.00000000E+00  0.00000000E+00  0.00000000E+00
  0.00000000E+00  0.00000000E+00  0.00000000E+00
  0.00000000E+00  0.00000000E+00  0.00000000E+00
  0.00000000E+00  0.00000000E+00  0.00000000E+00
  0.00000000E+00  0.00000000E+00  0.00000000E+00
  0.00000000E+00  0.00000000E+00  0.00000000E+00
  0.00000000E+00  0.00000000E+00  0.00000000E+00
