2 Te4                                   
   1.00000000000000     
     8.4314277387318697    0.0432561955770866   -0.0240340584486943
    -2.0891358073284239    3.6197385638940323   -0.0005400278856942
    -0.1183107265693273   -0.0747792061667738   43.4763707107816941
   Mn   Rh   Sn   Te
     1     1     4     8
Direct
  0.3333330000000032  0.3333330000000032  0.3333330000000032
  0.8333330000000032  0.3333330000000032  0.3333330000000032
  0.9956764690105386  0.9956774991609231  0.4189153773322762
  0.5033718980856849  0.0033809780680796  0.4189974566184432
  0.1632951019143119  0.6632860219319172  0.2476695433815607
  0.6709905309894582  0.6709895008390737  0.2477516226677277
  0.3331128903186457  0.3331039733861186  0.4568577421341268
  0.8326199552755982  0.3325806566546737  0.4582084910201954
  0.3335531096813608  0.3335620266138878  0.2098082578658725
  0.8340460447244082  0.3340853433453327  0.2084575089798039
  0.9798794954634692  0.9798933251886496  0.3019826223587444
  0.5260565778806744  0.0260376529350073  0.2992952024666559
  0.1406104221193225  0.6406293470649895  0.3673717975333480
  0.6867875045365276  0.6867736748113472  0.3646843776412595
 
  0.00000000E+00  0.00000000E+00  0.00000000E+00
  0.00000000E+00  0.00000000E+00  0.00000000E+00
  0.00000000E+00  0.00000000E+00  0.00000000E+00
  0.00000000E+00  0.00000000E+00  0.00000000E+00
  0.00000000E+00  0.00000000E+00  0.00000000E+00
  0.00000000E+00  0.00000000E+00  0.00000000E+00
  0.00000000E+00  0.00000000E+00  0.00000000E+00
  0.00000000E+00  0.00000000E+00  0.00000000E+00
  0.00000000E+00  0.00000000E+00  0.00000000E+00
  0.00000000E+00  0.00000000E+00  0.00000000E+00
  0.00000000E+00  0.00000000E+00  0.00000000E+00
  0.00000000E+00  0.00000000E+00  0.00000000E+00
  0.00000000E+00  0.00000000E+00  0.00000000E+00
  0.00000000E+00  0.00000000E+00  0.00000000E+00
