2 Te4                                   
   1.00000000000000     
     7.9953433835497716   -0.0557666973957851    0.0206917373332388
    -2.0231706999875207    3.4793612564049261   -0.0031026318572218
     0.1326382309771739    0.0336615035804365   48.0333170420025937
   Mn   Y    Sb   S 
     1     1     4     8
Direct
  0.3333330000000032  0.3333330000000032  0.3333330000000032
  0.8333330000000032  0.3333330000000032  0.3333330000000032
  0.0015472007613065  0.0017158539424421  0.4046327144771293
  0.4956478661273486  0.9947374692756938  0.4068073292564102
  0.1710191338726482  0.6719295307243029  0.2598596707435937
  0.6651197992386904  0.6649511460575546  0.2620342855228746
  0.3311046238324563  0.3318945594114148  0.4339547671046278
  0.8369302118818978  0.3365000578591884  0.4325520287907589
  0.3355613761675502  0.3347714405885916  0.2327112328953715
  0.8297357881181087  0.3301659421408181  0.2341139712092404
  0.0069069740158585  0.0071182230779089  0.3014171295433157
  0.4882121150529353  0.9883766856699698  0.3027653316993013
  0.1784548849470615  0.6782903143300270  0.3639016683007026
  0.6597600259841381  0.6595487769220877  0.3652498704566882
 
  0.00000000E+00  0.00000000E+00  0.00000000E+00
  0.00000000E+00  0.00000000E+00  0.00000000E+00
  0.00000000E+00  0.00000000E+00  0.00000000E+00
  0.00000000E+00  0.00000000E+00  0.00000000E+00
  0.00000000E+00  0.00000000E+00  0.00000000E+00
  0.00000000E+00  0.00000000E+00  0.00000000E+00
  0.00000000E+00  0.00000000E+00  0.00000000E+00
  0.00000000E+00  0.00000000E+00  0.00000000E+00
  0.00000000E+00  0.00000000E+00  0.00000000E+00
  0.00000000E+00  0.00000000E+00  0.00000000E+00
  0.00000000E+00  0.00000000E+00  0.00000000E+00
  0.00000000E+00  0.00000000E+00  0.00000000E+00
  0.00000000E+00  0.00000000E+00  0.00000000E+00
  0.00000000E+00  0.00000000E+00  0.00000000E+00
