2 Te4                                   
   1.00000000000000     
     8.5540697250732087    0.0639289960915991   -0.0095321653192199
    -2.1108254858499120    3.6525064967176375   -0.0002415721162118
    -0.0750208908987316   -0.0482965999987063   42.4108212597480119
   Mn   Ti   Pb   Te
     1     1     4     8
Direct
  0.3333330000000032  0.3333330000000032  0.3333330000000032
  0.8333330000000032  0.3333330000000032  0.3333330000000032
  0.0030373742035857  0.0030373995006149  0.4317486516614532
  0.4971928824082280  0.9973544636299156  0.4324747962627721
  0.1694741175917686  0.6693125363700811  0.2341922037372315
  0.6636296257964108  0.6636296004993824  0.2349183483385508
  0.3328110327175465  0.3328126584902358  0.4743732829745576
  0.8314927176376050  0.3313203792114347  0.4732631419877347
  0.3338549672824599  0.3338533415097706  0.1922927170254418
  0.8351732823624014  0.3353456207885717  0.1934028580122647
  0.9825464841380384  0.9825770240669132  0.2963808648508736
  0.5084829136795143  0.0083644709054469  0.2975997961710266
  0.1581840863204829  0.6583025290945499  0.3690672038289773
  0.6841205158619584  0.6840899759330836  0.3702861351491303
 
  0.00000000E+00  0.00000000E+00  0.00000000E+00
  0.00000000E+00  0.00000000E+00  0.00000000E+00
  0.00000000E+00  0.00000000E+00  0.00000000E+00
  0.00000000E+00  0.00000000E+00  0.00000000E+00
  0.00000000E+00  0.00000000E+00  0.00000000E+00
  0.00000000E+00  0.00000000E+00  0.00000000E+00
  0.00000000E+00  0.00000000E+00  0.00000000E+00
  0.00000000E+00  0.00000000E+00  0.00000000E+00
  0.00000000E+00  0.00000000E+00  0.00000000E+00
  0.00000000E+00  0.00000000E+00  0.00000000E+00
  0.00000000E+00  0.00000000E+00  0.00000000E+00
  0.00000000E+00  0.00000000E+00  0.00000000E+00
  0.00000000E+00  0.00000000E+00  0.00000000E+00
  0.00000000E+00  0.00000000E+00  0.00000000E+00
