2 Te4                                   
   1.00000000000000     
     8.2951789660395949   -0.0013631605289425   -0.0031263036300246
    -2.0743859252007564    3.5929433725783868   -0.0000043807649928
    -0.0075759110843915   -0.0044166763053095   44.6556142289982674
   Mn   Cd   Bi   Se
     1     1     4     8
Direct
  0.3333330000000032  0.3333330000000032  0.3333330000000032
  0.8333330000000032  0.3333330000000032  0.3333330000000032
  0.0008266682824288  0.0008265172060476  0.4118781226398951
  0.4988071721596898  0.9988071301561937  0.4122327565750943
  0.1678598278403070  0.6678598698438031  0.2544342434249096
  0.6658403317175678  0.6658404827939489  0.2547888773601088
  0.3303794975772070  0.3303795931729100  0.4475442980900712
  0.8362910048245998  0.3362910140259270  0.4472190466226866
  0.3362865024227994  0.3362864068270964  0.2191217019099281
  0.8303749951754066  0.3303749859740794  0.2194469533773126
  0.0084129721550587  0.0084127196352934  0.2996014042158223
  0.4916704843769458  0.9916709852966772  0.3000267648800766
  0.1749965156230509  0.6749960147033196  0.3666402351199273
  0.6582540278449380  0.6582542803647036  0.3670655957841816
 
  0.00000000E+00  0.00000000E+00  0.00000000E+00
  0.00000000E+00  0.00000000E+00  0.00000000E+00
  0.00000000E+00  0.00000000E+00  0.00000000E+00
  0.00000000E+00  0.00000000E+00  0.00000000E+00
  0.00000000E+00  0.00000000E+00  0.00000000E+00
  0.00000000E+00  0.00000000E+00  0.00000000E+00
  0.00000000E+00  0.00000000E+00  0.00000000E+00
  0.00000000E+00  0.00000000E+00  0.00000000E+00
  0.00000000E+00  0.00000000E+00  0.00000000E+00
  0.00000000E+00  0.00000000E+00  0.00000000E+00
  0.00000000E+00  0.00000000E+00  0.00000000E+00
  0.00000000E+00  0.00000000E+00  0.00000000E+00
  0.00000000E+00  0.00000000E+00  0.00000000E+00
  0.00000000E+00  0.00000000E+00  0.00000000E+00
