2 Te4                                   
   1.00000000000000     
     7.8021865047015497    0.0082495730480555   -0.0037713089551445
    -1.9469756525464612    3.3725678195445332    0.0002041667636512
    -0.0137623468861370   -0.0048355971740979   50.5439280822124104
   Mn   Mo   Pb   S 
     1     1     4     8
Direct
  0.3333330000000032  0.3333330000000032  0.3333330000000032
  0.8333330000000032  0.3333330000000032  0.3333330000000032
  0.9978012636526464  0.9979213272189817  0.4039136192786139
  0.4969189736770561  0.9969638102113556  0.4049545658604994
  0.1697480263229407  0.6697031897886412  0.2617124341395045
  0.6688657363473504  0.6687456727810150  0.2627533807213900
  0.3272066731500737  0.3272179119448091  0.4341484218683870
  0.8350347412783168  0.3350318649835400  0.4335301301390069
  0.3394593268499327  0.3394480880551973  0.2325175781316121
  0.8316312587216896  0.3316341350164593  0.2331358698609925
  0.9854032577103923  0.9853420220391169  0.3069542099546986
  0.5074717045321266  0.0079420835300242  0.3078772210641231
  0.1591952954678702  0.6587249164699728  0.3587897789358808
  0.6812637422896045  0.6813249779608799  0.3597127900453053
 
  0.00000000E+00  0.00000000E+00  0.00000000E+00
  0.00000000E+00  0.00000000E+00  0.00000000E+00
  0.00000000E+00  0.00000000E+00  0.00000000E+00
  0.00000000E+00  0.00000000E+00  0.00000000E+00
  0.00000000E+00  0.00000000E+00  0.00000000E+00
  0.00000000E+00  0.00000000E+00  0.00000000E+00
  0.00000000E+00  0.00000000E+00  0.00000000E+00
  0.00000000E+00  0.00000000E+00  0.00000000E+00
  0.00000000E+00  0.00000000E+00  0.00000000E+00
  0.00000000E+00  0.00000000E+00  0.00000000E+00
  0.00000000E+00  0.00000000E+00  0.00000000E+00
  0.00000000E+00  0.00000000E+00  0.00000000E+00
  0.00000000E+00  0.00000000E+00  0.00000000E+00
  0.00000000E+00  0.00000000E+00  0.00000000E+00
