2 Te4                                   
   1.00000000000000     
     8.0634166985505438    0.0785157430114031    0.0997266647740760
    -1.9818438031865149    3.4327815081716841   -0.0011787643204891
     0.4297178466390839    0.2317577482222272   47.8160104886601331
   Mn   Cu   Sb   Se
     1     1     4     8
Direct
  0.3333330000000032  0.3333330000000032  0.3333330000000032
  0.8333330000000032  0.3333330000000032  0.3333330000000032
  0.9976620165536655  0.9976626880059399  0.4056816192357229
  0.5005677652436913  0.0005877080858779  0.4008476371238578
  0.1660992347563055  0.6660792919141189  0.2658193628761460
  0.6690049834463313  0.6690043119940569  0.2609853807642810
  0.3362371419521362  0.3363046361344228  0.4348444105493511
  0.8311122678451272  0.3310370615587603  0.4374705879371155
  0.3304288580478702  0.3303613638655836  0.2318215894506481
  0.8355537321548793  0.3356289384412461  0.2291954120628839
  0.9850681859457232  0.9853758046030222  0.3049938848122939
  0.4851093449198405  0.9852675189673789  0.3015807905204912
  0.1815576550801563  0.6813994810326179  0.3650862094795126
  0.6815988140542736  0.6812911953969746  0.3616731151877099
 
  0.00000000E+00  0.00000000E+00  0.00000000E+00
  0.00000000E+00  0.00000000E+00  0.00000000E+00
  0.00000000E+00  0.00000000E+00  0.00000000E+00
  0.00000000E+00  0.00000000E+00  0.00000000E+00
  0.00000000E+00  0.00000000E+00  0.00000000E+00
  0.00000000E+00  0.00000000E+00  0.00000000E+00
  0.00000000E+00  0.00000000E+00  0.00000000E+00
  0.00000000E+00  0.00000000E+00  0.00000000E+00
  0.00000000E+00  0.00000000E+00  0.00000000E+00
  0.00000000E+00  0.00000000E+00  0.00000000E+00
  0.00000000E+00  0.00000000E+00  0.00000000E+00
  0.00000000E+00  0.00000000E+00  0.00000000E+00
  0.00000000E+00  0.00000000E+00  0.00000000E+00
  0.00000000E+00  0.00000000E+00  0.00000000E+00
