2 Te4                                   
   1.00000000000000     
     8.0129560811738259    0.0616058903081076    0.0150998942690987
    -1.9766343046936710    3.4344849716746206   -0.0063978138729767
     0.1266086691140652   -0.0166586881971364   48.1439167649622775
   Mn   Ag   Bi   S 
     1     1     4     8
Direct
  0.3333330000000032  0.3333330000000032  0.3333330000000032
  0.8333330000000032  0.3333330000000032  0.3333330000000032
  0.0009868579536395  0.0004098489960817  0.4020292345740593
  0.4989995436564267  0.9989149827825341  0.4003546839353189
  0.1676674563435701  0.6677520172174627  0.2663123160646850
  0.6656801420463573  0.6662571510039148  0.2646377654259446
  0.3280066000185501  0.3286336982542351  0.4318981998154591
  0.8368871173929957  0.3374120067055674  0.4321818577598520
  0.3386593999814563  0.3380323017457714  0.2347678001845402
  0.8297788826070107  0.3292539932944391  0.2344841422401473
  0.0108510187173124  0.0133465641278827  0.3040360828488848
  0.4820305184985020  0.9837574455707332  0.3040209327364202
  0.1846364815014947  0.6829095544292636  0.3626460672635837
  0.6558159812826844  0.6533204358721141  0.3626309171511191
 
  0.00000000E+00  0.00000000E+00  0.00000000E+00
  0.00000000E+00  0.00000000E+00  0.00000000E+00
  0.00000000E+00  0.00000000E+00  0.00000000E+00
  0.00000000E+00  0.00000000E+00  0.00000000E+00
  0.00000000E+00  0.00000000E+00  0.00000000E+00
  0.00000000E+00  0.00000000E+00  0.00000000E+00
  0.00000000E+00  0.00000000E+00  0.00000000E+00
  0.00000000E+00  0.00000000E+00  0.00000000E+00
  0.00000000E+00  0.00000000E+00  0.00000000E+00
  0.00000000E+00  0.00000000E+00  0.00000000E+00
  0.00000000E+00  0.00000000E+00  0.00000000E+00
  0.00000000E+00  0.00000000E+00  0.00000000E+00
  0.00000000E+00  0.00000000E+00  0.00000000E+00
  0.00000000E+00  0.00000000E+00  0.00000000E+00
