2 Te4                                   
   1.00000000000000     
     7.7547665024049701    0.0072701401620281   -0.0286404718260339
    -1.9355509213266009    3.3696726874505458    0.0051134827112430
    -0.3241145722218597   -0.1109027688574956   50.9016064059182014
   Mn   Co   Pb   S 
     1     1     4     8
Direct
  0.3333330000000032  0.3333330000000032  0.3333330000000032
  0.8333330000000032  0.3333330000000032  0.3333330000000032
  0.9987642038438860  0.9987480170735847  0.3992651994780110
  0.5003396333022595 -0.0003625954277795  0.3986584007189822
  0.1663273666977371  0.6670295954277761  0.2680085992810217
  0.6679027961561108  0.6679189829264121  0.2674018005219929
  0.3340167521509957  0.3333957563345242  0.4283299637404794
  0.8359560652532118  0.3361206424331584  0.4285925218809655
  0.3326492478490107  0.3332702436654751  0.2383360362595199
  0.8307099347467947  0.3305453575668481  0.2380734781190338
  0.9887123245680065  0.9859102833371493  0.3083642951860288
  0.5141764650949393  0.0119258458836277  0.3077052218244078
  0.1524905349050577  0.6547411541163689  0.3589617781755960
  0.6779546754319903  0.6807567166628475  0.3583027048139751
 
  0.00000000E+00  0.00000000E+00  0.00000000E+00
  0.00000000E+00  0.00000000E+00  0.00000000E+00
  0.00000000E+00  0.00000000E+00  0.00000000E+00
  0.00000000E+00  0.00000000E+00  0.00000000E+00
  0.00000000E+00  0.00000000E+00  0.00000000E+00
  0.00000000E+00  0.00000000E+00  0.00000000E+00
  0.00000000E+00  0.00000000E+00  0.00000000E+00
  0.00000000E+00  0.00000000E+00  0.00000000E+00
  0.00000000E+00  0.00000000E+00  0.00000000E+00
  0.00000000E+00  0.00000000E+00  0.00000000E+00
  0.00000000E+00  0.00000000E+00  0.00000000E+00
  0.00000000E+00  0.00000000E+00  0.00000000E+00
  0.00000000E+00  0.00000000E+00  0.00000000E+00
  0.00000000E+00  0.00000000E+00  0.00000000E+00
