2 Te4                                   
   1.00000000000000     
     7.9337175911951165    0.0032414179165890   -0.0016500040629942
    -1.9820266928642156    3.4328228772401612    0.0000088031697625
    -0.0253544568143465   -0.0145133830913895   48.8517864719294437
   Mn   Zn   Sn   Se
     1     1     4     8
Direct
  0.3333330000000032  0.3333330000000032  0.3333330000000032
  0.8333330000000032  0.3333330000000032  0.3333330000000032
  0.0001850502781505  0.0001854945359186  0.4044789165320451
  0.5018290837187591  0.0018328273471693  0.4035088795018622
  0.1648379162812377  0.6648341726528275  0.2631581204981417
  0.6664819497218463  0.6664815054640784  0.2621880834679588
  0.3367904104140512  0.3367902784777122  0.4350081806631852
  0.8319791625168713  0.3319794099013608  0.4355403034016818
  0.3298755895859553  0.3298757215222942  0.2316578193368140
  0.8346868374831351  0.3346865900986457  0.2311256965983176
  0.9975328131038377  0.9975320071989398  0.3039027297797989
  0.5055196954175637  0.0055154647485228  0.3030173342848744
  0.1611473045824331  0.6611515352514670  0.3636496657151295
  0.6691341868961591  0.6691349928010570  0.3627642702202050
 
  0.00000000E+00  0.00000000E+00  0.00000000E+00
  0.00000000E+00  0.00000000E+00  0.00000000E+00
  0.00000000E+00  0.00000000E+00  0.00000000E+00
  0.00000000E+00  0.00000000E+00  0.00000000E+00
  0.00000000E+00  0.00000000E+00  0.00000000E+00
  0.00000000E+00  0.00000000E+00  0.00000000E+00
  0.00000000E+00  0.00000000E+00  0.00000000E+00
  0.00000000E+00  0.00000000E+00  0.00000000E+00
  0.00000000E+00  0.00000000E+00  0.00000000E+00
  0.00000000E+00  0.00000000E+00  0.00000000E+00
  0.00000000E+00  0.00000000E+00  0.00000000E+00
  0.00000000E+00  0.00000000E+00  0.00000000E+00
  0.00000000E+00  0.00000000E+00  0.00000000E+00
  0.00000000E+00  0.00000000E+00  0.00000000E+00
