2 Te4                                   
   1.00000000000000     
     7.7931565670116170    0.0320994908908720   -0.0111698165195899
    -1.9343917411829699    3.3506805965215745   -0.0003556118667810
    -0.0345965331859791   -0.0254988444166787   50.8432917758528120
   Mn   Tc   Pb   S 
     1     1     4     8
Direct
  0.3333330000000032  0.3333330000000032  0.3333330000000032
  0.8333330000000032  0.3333330000000032  0.3333330000000032
  0.0031808515338968  0.0031216959899740  0.4051986882876661
  0.4997551080234859  0.9997540184097788  0.4054707819193404
  0.1669118919765110  0.6669129815902179  0.2611962180806635
  0.6634861484660999  0.6635453040100227  0.2614683117123378
  0.3346135903065267  0.3346349069750289  0.4348569651333070
  0.8341533949553689  0.3341000024802241  0.4343086870181199
  0.3320524096934798  0.3320310930249775  0.2318090348666924
  0.8325126050446375  0.3325659975197823  0.2323573129818795
  0.9800135820743103  0.9799731019903338  0.3081266648636171
  0.5171637185632235  0.0170938542111061  0.3081364356377443
  0.1495032814367733  0.6495731457888907  0.3585305643622596
  0.6866534179256865  0.6866938980096630  0.3585403351363868
 
  0.00000000E+00  0.00000000E+00  0.00000000E+00
  0.00000000E+00  0.00000000E+00  0.00000000E+00
  0.00000000E+00  0.00000000E+00  0.00000000E+00
  0.00000000E+00  0.00000000E+00  0.00000000E+00
  0.00000000E+00  0.00000000E+00  0.00000000E+00
  0.00000000E+00  0.00000000E+00  0.00000000E+00
  0.00000000E+00  0.00000000E+00  0.00000000E+00
  0.00000000E+00  0.00000000E+00  0.00000000E+00
  0.00000000E+00  0.00000000E+00  0.00000000E+00
  0.00000000E+00  0.00000000E+00  0.00000000E+00
  0.00000000E+00  0.00000000E+00  0.00000000E+00
  0.00000000E+00  0.00000000E+00  0.00000000E+00
  0.00000000E+00  0.00000000E+00  0.00000000E+00
  0.00000000E+00  0.00000000E+00  0.00000000E+00
