2 Te4                                   
   1.00000000000000     
     7.6733954057864144   -0.0094458889628168   -0.0226917288756087
    -1.9224383587711935    3.3287163369323438    0.0007546883620286
    -0.0438673436789749   -0.0135128445251372   52.1382805895618588
   Mn   Sc   Sn   S 
     1     1     4     8
Direct
  0.3333330000000032  0.3333330000000032  0.3333330000000032
  0.8333330000000032  0.3333330000000032  0.3333330000000032
  0.0010823181262150  0.0012825567423864  0.4000957774560007
  0.4958654503508941  0.9961877485038899  0.4020357725489656
  0.1708015496491100  0.6704792514961069  0.2646312274510383
  0.6655846818737816  0.6653844432576105  0.2665712225440032
  0.3232868930320832  0.3233369703590998  0.4286956271979694
  0.8428722076446528  0.3427469312511322  0.4273789592487676
  0.3433791069679232  0.3433290296409067  0.2379703728020298
  0.8237937923553537  0.3239190687488742  0.2392870407512318
  0.9953883850416875  0.9955814504424808  0.3056641166850372
  0.5023753307507807  0.0022927645736312  0.3053664651451362
  0.1642916692492158  0.6643742354263655  0.3613005348548677
  0.6712786149583093  0.6710855495575160  0.3610028833149667
 
  0.00000000E+00  0.00000000E+00  0.00000000E+00
  0.00000000E+00  0.00000000E+00  0.00000000E+00
  0.00000000E+00  0.00000000E+00  0.00000000E+00
  0.00000000E+00  0.00000000E+00  0.00000000E+00
  0.00000000E+00  0.00000000E+00  0.00000000E+00
  0.00000000E+00  0.00000000E+00  0.00000000E+00
  0.00000000E+00  0.00000000E+00  0.00000000E+00
  0.00000000E+00  0.00000000E+00  0.00000000E+00
  0.00000000E+00  0.00000000E+00  0.00000000E+00
  0.00000000E+00  0.00000000E+00  0.00000000E+00
  0.00000000E+00  0.00000000E+00  0.00000000E+00
  0.00000000E+00  0.00000000E+00  0.00000000E+00
  0.00000000E+00  0.00000000E+00  0.00000000E+00
  0.00000000E+00  0.00000000E+00  0.00000000E+00
