2 Te4                                   
   1.00000000000000     
     8.4062812644422884   -0.0416637177170813    0.0054145817723302
    -2.1196451923817552    3.6640753936415913    0.0009882706341205
     0.0275674390906295    0.0300670124881576   43.3301302154983503
   Mn   Sn   Te
     2     4     8
Direct
  0.3333330000000032  0.3333330000000032  0.3333330000000032
  0.8333330000000032  0.3333330000000032  0.3333330000000032
  0.9993867508087103  0.9995259464813482  0.4200769811818086
  0.4993867508087103  0.9995259464813482  0.4200769811818086
  0.1672802491912865  0.6671410535186486  0.2465900188182024
  0.6672802491912865  0.6671410535186486  0.2465900188182024
  0.3334128669323401  0.3333531991046481  0.4583075058056296
  0.8334128669323401  0.3333531991046481  0.4583075058056296
  0.3332531330676664  0.3333128008953584  0.2083584941943698
  0.8332531330676664  0.3333128008953584  0.2083584941943698
  0.0002021823501086  0.0002204419475765  0.2955895820074466
  0.5002021823501084  0.0002204419475765  0.2955895820074466
  0.1664648176498883  0.6664465580524203  0.3710774179925573
  0.6664648176498882  0.6664465580524203  0.3710774179925573
 
  0.00000000E+00  0.00000000E+00  0.00000000E+00
  0.00000000E+00  0.00000000E+00  0.00000000E+00
  0.00000000E+00  0.00000000E+00  0.00000000E+00
  0.00000000E+00  0.00000000E+00  0.00000000E+00
  0.00000000E+00  0.00000000E+00  0.00000000E+00
  0.00000000E+00  0.00000000E+00  0.00000000E+00
  0.00000000E+00  0.00000000E+00  0.00000000E+00
  0.00000000E+00  0.00000000E+00  0.00000000E+00
  0.00000000E+00  0.00000000E+00  0.00000000E+00
  0.00000000E+00  0.00000000E+00  0.00000000E+00
  0.00000000E+00  0.00000000E+00  0.00000000E+00
  0.00000000E+00  0.00000000E+00  0.00000000E+00
  0.00000000E+00  0.00000000E+00  0.00000000E+00
  0.00000000E+00  0.00000000E+00  0.00000000E+00
