2 Te4                                   
   1.00000000000000     
     7.8761613035967564   -0.0306790594931624   -0.0069963424111143
    -1.9823431327686669    3.4285975328420344    0.0015536793933162
     0.0577117295547767    0.0560485921374634   49.3922201482788736
   Mn   Sn   Se
     2     4     8
Direct
  0.3333330000000032  0.3333330000000032  0.3333330000000032
  0.8333330000000032  0.3333330000000032  0.3333330000000032
  0.9990458830997466  0.9992059485243510  0.4040604679757571
  0.4990458830997469  0.9992059485243510  0.4040604679757571
  0.1676211169002499  0.6674610514756458  0.2626065320242468
  0.6676211169002502  0.6674610514756458  0.2626065320242468
  0.3328854753384843  0.3327246266530027  0.4345271016421157
  0.8328854753384841  0.3327246266530027  0.4345271016421157
  0.3337805246615221  0.3339413733470037  0.2321388983578836
  0.8337805246615223  0.3339413733470037  0.2321388983578836
  0.0007879170156543  0.0007893464303660  0.3024309839701460
  0.5007879170156543  0.0007893464303660  0.3024309839701460
  0.1658790829843425  0.6658776535696308  0.3642360160298579
  0.6658790829843425  0.6658776535696308  0.3642360160298579
 
  0.00000000E+00  0.00000000E+00  0.00000000E+00
  0.00000000E+00  0.00000000E+00  0.00000000E+00
  0.00000000E+00  0.00000000E+00  0.00000000E+00
  0.00000000E+00  0.00000000E+00  0.00000000E+00
  0.00000000E+00  0.00000000E+00  0.00000000E+00
  0.00000000E+00  0.00000000E+00  0.00000000E+00
  0.00000000E+00  0.00000000E+00  0.00000000E+00
  0.00000000E+00  0.00000000E+00  0.00000000E+00
  0.00000000E+00  0.00000000E+00  0.00000000E+00
  0.00000000E+00  0.00000000E+00  0.00000000E+00
  0.00000000E+00  0.00000000E+00  0.00000000E+00
  0.00000000E+00  0.00000000E+00  0.00000000E+00
  0.00000000E+00  0.00000000E+00  0.00000000E+00
  0.00000000E+00  0.00000000E+00  0.00000000E+00
