2 Te4                                   
   1.00000000000000     
     8.7885357440231804   -0.0052225929697705   -0.0062841759404052
    -2.1993928397344598    3.8096478357446322   -0.0000927542922948
    -0.0252311707740014   -0.0153545335092120   39.7611459702441081
   Mn   Nb   Bi   Te
     1     1     4     8
Direct
  0.3333330000000032  0.3333330000000032  0.3333330000000032
  0.8333330000000032  0.3333330000000032  0.3333330000000032
  0.9994337806068002  0.9993817321266230  0.4264442961020438
  0.5015251741083260  0.0015007664210112  0.4289170121147532
  0.1651418258916710  0.6651662335789860  0.2377499878852507
  0.6672332193931966  0.6672852678733738  0.2402227038979601
  0.3314040047690725  0.3314428507544982  0.4712980873360548
  0.8349094645923899  0.3349352533658320  0.4708554363679894
  0.3352619952309339  0.3352231492455082  0.1953679126639446
  0.8317565354076165  0.3317307466341745  0.1958105636320099
  0.0015542452418427  0.0014870422084091  0.2938058701883776
  0.4998762547206232  0.9998527407185245  0.2938840145304532
  0.1667907452793735  0.6668142592814723  0.3727829854695507
  0.6651127547581542  0.6651799577915878  0.3728611298116263
 
  0.00000000E+00  0.00000000E+00  0.00000000E+00
  0.00000000E+00  0.00000000E+00  0.00000000E+00
  0.00000000E+00  0.00000000E+00  0.00000000E+00
  0.00000000E+00  0.00000000E+00  0.00000000E+00
  0.00000000E+00  0.00000000E+00  0.00000000E+00
  0.00000000E+00  0.00000000E+00  0.00000000E+00
  0.00000000E+00  0.00000000E+00  0.00000000E+00
  0.00000000E+00  0.00000000E+00  0.00000000E+00
  0.00000000E+00  0.00000000E+00  0.00000000E+00
  0.00000000E+00  0.00000000E+00  0.00000000E+00
  0.00000000E+00  0.00000000E+00  0.00000000E+00
  0.00000000E+00  0.00000000E+00  0.00000000E+00
  0.00000000E+00  0.00000000E+00  0.00000000E+00
  0.00000000E+00  0.00000000E+00  0.00000000E+00
