2 Te4                                   
   1.00000000000000     
     8.1015453982987857   -0.0013782163744095   -0.0229401454070987
    -2.0259820891375382    3.5082545399627931    0.0005551010816516
    -0.1063825516268893   -0.0539958285566801   46.8272001935348996
   Mn   Mo   Pb   Se
     1     1     4     8
Direct
  0.3333330000000032  0.3333330000000032  0.3333330000000032
  0.8333330000000032  0.3333330000000032  0.3333330000000032
  0.9967016507359436  0.9968518109928326  0.4137396136860435
  0.4974127388529805  0.9974926841522409  0.4148156009118389
  0.1692542611470162  0.6691743158477559  0.2518513990881650
  0.6699653492640532  0.6698151890071642  0.2529273863139604
  0.3300408823134954  0.3299970408736482  0.4483697096716927
  0.8353975338287020  0.3353809684674952  0.4479656243971317
  0.3366251176865110  0.3366689591263582  0.2182962903283066
  0.8312684661713045  0.3312850315325113  0.2187003756028676
  0.9883594098681598  0.9883718124812617  0.3031994824921272
  0.5014110177576562  0.0016136177478737  0.3045960733333946
  0.1652559822423406  0.6650533822521231  0.3620709266666093
  0.6783075901318369  0.6782951875187351  0.3634675175078767
 
  0.00000000E+00  0.00000000E+00  0.00000000E+00
  0.00000000E+00  0.00000000E+00  0.00000000E+00
  0.00000000E+00  0.00000000E+00  0.00000000E+00
  0.00000000E+00  0.00000000E+00  0.00000000E+00
  0.00000000E+00  0.00000000E+00  0.00000000E+00
  0.00000000E+00  0.00000000E+00  0.00000000E+00
  0.00000000E+00  0.00000000E+00  0.00000000E+00
  0.00000000E+00  0.00000000E+00  0.00000000E+00
  0.00000000E+00  0.00000000E+00  0.00000000E+00
  0.00000000E+00  0.00000000E+00  0.00000000E+00
  0.00000000E+00  0.00000000E+00  0.00000000E+00
  0.00000000E+00  0.00000000E+00  0.00000000E+00
  0.00000000E+00  0.00000000E+00  0.00000000E+00
  0.00000000E+00  0.00000000E+00  0.00000000E+00
