2 Te4                                   
   1.00000000000000     
     8.2894293964612977    0.0371328396481034    0.0042603766515385
    -2.0563073967985295    3.5699729898196795   -0.0033509492766613
     0.0024255568674845   -0.0401670406699529   44.8541384075088700
   Mn   Ag   Bi   Se
     1     1     4     8
Direct
  0.3333330000000032  0.3333330000000032  0.3333330000000032
  0.8333330000000032  0.3333330000000032  0.3333330000000032
  0.0015103304770406  0.0011666576453479  0.4107071670293407
  0.4992281510002021  0.9993321397377982  0.4084655457920073
  0.1674388489997947  0.6673348602621986  0.2582014542079966
  0.6651566695229563  0.6655003423546487  0.2559598329706632
  0.3316025605369465  0.3320574944548108  0.4451501673775514
  0.8352974085465881  0.3354827604652226  0.4454179920717556
  0.3350634394630599  0.3346085055451956  0.2215158326224480
  0.8313685914534183  0.3311832395347838  0.2212480079282438
  0.0083911307889035  0.0097365806036275  0.3004422876933011
  0.4888935138584536  0.9899101593310792  0.3006351027668179
  0.1777734861415433  0.6767568406689176  0.3660318972331860
  0.6582758692110935  0.6569304193963692  0.3662247123067028
 
  0.00000000E+00  0.00000000E+00  0.00000000E+00
  0.00000000E+00  0.00000000E+00  0.00000000E+00
  0.00000000E+00  0.00000000E+00  0.00000000E+00
  0.00000000E+00  0.00000000E+00  0.00000000E+00
  0.00000000E+00  0.00000000E+00  0.00000000E+00
  0.00000000E+00  0.00000000E+00  0.00000000E+00
  0.00000000E+00  0.00000000E+00  0.00000000E+00
  0.00000000E+00  0.00000000E+00  0.00000000E+00
  0.00000000E+00  0.00000000E+00  0.00000000E+00
  0.00000000E+00  0.00000000E+00  0.00000000E+00
  0.00000000E+00  0.00000000E+00  0.00000000E+00
  0.00000000E+00  0.00000000E+00  0.00000000E+00
  0.00000000E+00  0.00000000E+00  0.00000000E+00
  0.00000000E+00  0.00000000E+00  0.00000000E+00
