2 Te4                                   
   1.00000000000000     
     7.7677135794381824   -0.0293495246187604    0.0144173209678115
    -1.9546378232180219    3.3855693578713839    0.0000316611564509
     0.0796762342913434    0.0465077190239564   50.7149683492729011
   Mn   Y    Sn   S 
     1     1     4     8
Direct
  0.3333330000000032  0.3333330000000032  0.3333330000000032
  0.8333330000000032  0.3333330000000032  0.3333330000000032
  0.0017413183636849  0.0018581424621954  0.4030556828681693
  0.4955960057122118  0.9955006828650181  0.4054635255120428
  0.1710709942877849  0.6711663171349787  0.2612034744879611
  0.6649256816363119  0.6648088575378014  0.2636113171318346
  0.3245809679824412  0.3245103186443621  0.4321837660455380
  0.8391942649713447  0.3392645802884874  0.4308626169150442
  0.3420850320175652  0.3421556813556443  0.2344822339544612
  0.8274717350286617  0.3274014197115190  0.2358033830849552
  0.0131905464183255  0.0132029708549912  0.3027160130403844
  0.4856566904124779  0.9857194934306976  0.3038164039774576
  0.1810103095875189  0.6809475065692991  0.3628505960225463
  0.6534764535816713  0.6534640291450056  0.3639509869596195
 
  0.00000000E+00  0.00000000E+00  0.00000000E+00
  0.00000000E+00  0.00000000E+00  0.00000000E+00
  0.00000000E+00  0.00000000E+00  0.00000000E+00
  0.00000000E+00  0.00000000E+00  0.00000000E+00
  0.00000000E+00  0.00000000E+00  0.00000000E+00
  0.00000000E+00  0.00000000E+00  0.00000000E+00
  0.00000000E+00  0.00000000E+00  0.00000000E+00
  0.00000000E+00  0.00000000E+00  0.00000000E+00
  0.00000000E+00  0.00000000E+00  0.00000000E+00
  0.00000000E+00  0.00000000E+00  0.00000000E+00
  0.00000000E+00  0.00000000E+00  0.00000000E+00
  0.00000000E+00  0.00000000E+00  0.00000000E+00
  0.00000000E+00  0.00000000E+00  0.00000000E+00
  0.00000000E+00  0.00000000E+00  0.00000000E+00
