2 Te4                                   
   1.00000000000000     
     7.9251693834322792    0.0198753793636648   -0.0288088410929347
    -1.9726856197143903    3.4162156531158239   -0.0000408986157818
    -0.1431529800199363   -0.0832252034122683   49.0834179975978344
   Mn   Rh   Sn   Se
     1     1     4     8
Direct
  0.3333330000000032  0.3333330000000032  0.3333330000000032
  0.8333330000000032  0.3333330000000032  0.3333330000000032
  0.9969615296263554  0.9969471973446066  0.4033329792245753
  0.4991969488042311  0.9992039241193467  0.4037393505744049
  0.1674700511957657  0.6674630758806501  0.2629276494255990
  0.6697054703736414  0.6697198026553902  0.2633340207754286
  0.3290169751027605  0.3290011884977255  0.4345518367569353
  0.8346841110639991  0.3346872401742744  0.4347399707638310
  0.3376490248972460  0.3376648115022809  0.2321141632430640
  0.8319818889360073  0.3319787598257321  0.2319260292361683
  0.9776205513764558  0.9776285954028221  0.3073494559572481
  0.5277096354235052  0.0276531925288978  0.3047061903791393
  0.1389573645764916  0.6390138074710990  0.3619608096208646
  0.6890464486235410  0.6890384045971747  0.3593175440427558
 
  0.00000000E+00  0.00000000E+00  0.00000000E+00
  0.00000000E+00  0.00000000E+00  0.00000000E+00
  0.00000000E+00  0.00000000E+00  0.00000000E+00
  0.00000000E+00  0.00000000E+00  0.00000000E+00
  0.00000000E+00  0.00000000E+00  0.00000000E+00
  0.00000000E+00  0.00000000E+00  0.00000000E+00
  0.00000000E+00  0.00000000E+00  0.00000000E+00
  0.00000000E+00  0.00000000E+00  0.00000000E+00
  0.00000000E+00  0.00000000E+00  0.00000000E+00
  0.00000000E+00  0.00000000E+00  0.00000000E+00
  0.00000000E+00  0.00000000E+00  0.00000000E+00
  0.00000000E+00  0.00000000E+00  0.00000000E+00
  0.00000000E+00  0.00000000E+00  0.00000000E+00
  0.00000000E+00  0.00000000E+00  0.00000000E+00
