2 Te4                                   
   1.00000000000000     
     8.8155579087225586    0.2109793757493413    0.0465336046572346
    -2.1125169647685063    3.6582846133434344   -0.0001348224458204
     0.2152113360197889    0.1226661237196873   40.7041404093800310
   Mn   Cu   Bi   Te
     1     1     4     8
Direct
  0.3333330000000032  0.3333330000000032  0.3333330000000032
  0.8333330000000032  0.3333330000000032  0.3333330000000032
  0.9934791729244135  0.9934448041462097  0.4263731985449167
  0.4961813040451294  0.9961159176388571  0.4220844635397761
  0.1704856959548674  0.6705510823611397  0.2445825364602276
  0.6731878270755832  0.6732221958537871  0.2402938014550871
  0.3335311409929909  0.3335175320622727  0.4664931907675871
  0.8276411174899826  0.3276277471577900  0.4689516513770008
  0.3331348590070155  0.3331484679377337  0.2001728092324120
  0.8390248825100238  0.3390382528422164  0.1977143486229986
  0.9739518007961455  0.9738227945774388  0.2988493069337629
  0.4814534088621736  0.9814068566875358  0.2937941317754618
  0.1852135911378232  0.6852601433124610  0.3728728682245421
  0.6927151992038513  0.6928442054225580  0.3678176930662410
 
  0.00000000E+00  0.00000000E+00  0.00000000E+00
  0.00000000E+00  0.00000000E+00  0.00000000E+00
  0.00000000E+00  0.00000000E+00  0.00000000E+00
  0.00000000E+00  0.00000000E+00  0.00000000E+00
  0.00000000E+00  0.00000000E+00  0.00000000E+00
  0.00000000E+00  0.00000000E+00  0.00000000E+00
  0.00000000E+00  0.00000000E+00  0.00000000E+00
  0.00000000E+00  0.00000000E+00  0.00000000E+00
  0.00000000E+00  0.00000000E+00  0.00000000E+00
  0.00000000E+00  0.00000000E+00  0.00000000E+00
  0.00000000E+00  0.00000000E+00  0.00000000E+00
  0.00000000E+00  0.00000000E+00  0.00000000E+00
  0.00000000E+00  0.00000000E+00  0.00000000E+00
  0.00000000E+00  0.00000000E+00  0.00000000E+00
