2 Te4                                   
   1.00000000000000     
     8.1543913025987802    0.0241914899206903    0.0030267949097443
    -2.0281198756131595    3.5114700904429768   -0.0000285540610447
     0.0108114670034818    0.0056866032247787   46.3966870502690085
   Mn   Zr   Pb   Se
     1     1     4     8
Direct
  0.3333330000000032  0.3333330000000032  0.3333330000000032
  0.8333330000000032  0.3333330000000032  0.3333330000000032
  0.0042963880561988  0.0042647112764507  0.4179384128229716
  0.4962274730960775  0.9962167551022911  0.4198885803800297
  0.1704395269039265  0.6704502448977057  0.2467784196199741
  0.6623706119437980  0.6624022887235461  0.2487285871770324
  0.3299551106129486  0.3299193350892503  0.4537082195845290
  0.8362262164441943  0.3361985651501547  0.4519145580632214
  0.3367108893870578  0.3367466649107561  0.2129577804154703
  0.8304397835558122  0.3304674348498517  0.2147514419367778
  0.9896765305398972  0.9896715847434545  0.3005502897458635
  0.5013519599832084  0.0010189103009135  0.3023375575694588
  0.1653150400167883  0.6656480896990835  0.3643294424305450
  0.6769904694600996  0.6769954152565423  0.3661167102541404
 
  0.00000000E+00  0.00000000E+00  0.00000000E+00
  0.00000000E+00  0.00000000E+00  0.00000000E+00
  0.00000000E+00  0.00000000E+00  0.00000000E+00
  0.00000000E+00  0.00000000E+00  0.00000000E+00
  0.00000000E+00  0.00000000E+00  0.00000000E+00
  0.00000000E+00  0.00000000E+00  0.00000000E+00
  0.00000000E+00  0.00000000E+00  0.00000000E+00
  0.00000000E+00  0.00000000E+00  0.00000000E+00
  0.00000000E+00  0.00000000E+00  0.00000000E+00
  0.00000000E+00  0.00000000E+00  0.00000000E+00
  0.00000000E+00  0.00000000E+00  0.00000000E+00
  0.00000000E+00  0.00000000E+00  0.00000000E+00
  0.00000000E+00  0.00000000E+00  0.00000000E+00
  0.00000000E+00  0.00000000E+00  0.00000000E+00
