2 Te4                                   
   1.00000000000000     
     7.7930530699914708   -0.0020115488943915   -0.0042524579535512
    -1.9491351753151351    3.3760242013784025    0.0000142936903472
     0.0117213650622718    0.0069823783823252   50.5897372123744304
   Mn   Sb   S 
     2     4     8
Direct
  0.3333330000000032  0.3333330000000032  0.3333330000000032
  0.8333330000000032  0.3333330000000032  0.3333330000000032
  0.9995719459397930  0.9995718103760159  0.3988871029147019
  0.4995719459397931  0.9995718103760159  0.3988871029147019
  0.1670950540602037  0.6670951896239808  0.2677798970853020
  0.6670950540602038  0.6670951896239808  0.2677798970853020
  0.3331272323959574  0.3331281396805008  0.4272790018232300
  0.8331272323959574  0.3331281396805008  0.4272790018232300
  0.3335387676040490  0.3335378603195057  0.2393869981767694
  0.8335387676040490  0.3335378603195057  0.2393869981767694
  0.9998590936081155  0.9998594884853009  0.3053943968760825
  0.4998590936081155  0.9998594884853009  0.3053943968760825
  0.1668079063918813  0.6668075115146959  0.3612726031239214
  0.6668079063918813  0.6668075115146959  0.3612726031239214
 
  0.00000000E+00  0.00000000E+00  0.00000000E+00
  0.00000000E+00  0.00000000E+00  0.00000000E+00
  0.00000000E+00  0.00000000E+00  0.00000000E+00
  0.00000000E+00  0.00000000E+00  0.00000000E+00
  0.00000000E+00  0.00000000E+00  0.00000000E+00
  0.00000000E+00  0.00000000E+00  0.00000000E+00
  0.00000000E+00  0.00000000E+00  0.00000000E+00
  0.00000000E+00  0.00000000E+00  0.00000000E+00
  0.00000000E+00  0.00000000E+00  0.00000000E+00
  0.00000000E+00  0.00000000E+00  0.00000000E+00
  0.00000000E+00  0.00000000E+00  0.00000000E+00
  0.00000000E+00  0.00000000E+00  0.00000000E+00
  0.00000000E+00  0.00000000E+00  0.00000000E+00
  0.00000000E+00  0.00000000E+00  0.00000000E+00
