2 Te4                                   
   1.00000000000000     
     7.7620164259175652    0.0029046778007767   -0.0006725049171126
    -1.9392472430863106    3.3588947749277382    0.0000032082457147
     0.0279953082968528    0.0162153292364558   51.0324186952059051
   Mn   V    Sb   S 
     1     1     4     8
Direct
  0.3333330000000032  0.3333330000000032  0.3333330000000032
  0.8333330000000032  0.3333330000000032  0.3333330000000032
  0.9958902443843370  0.9958911783025609  0.3971012567452473
  0.4999517822670327 -0.0000497944055672  0.3989547929593529
  0.1667152177329642  0.6667167944055640  0.2677122070406510
  0.6707767556156597  0.6707758216974359  0.2695657432547566
  0.3359718197952820  0.3359671445807328  0.4264176040302934
  0.8311968318081389  0.3311993082932363  0.4258533739405908
  0.3306941802047245  0.3306988554192736  0.2402483959697059
  0.8354691681918676  0.3354666917067701  0.2408126260594086
  0.9941752035109009  0.9941766052982443  0.3057139584534379
  0.5022208514638845  0.0022227653049058  0.3059321768257616
  0.1644461485361123  0.6644442346950910  0.3607348231742423
  0.6724917964890958  0.6724903947017525  0.3609530415465660
 
  0.00000000E+00  0.00000000E+00  0.00000000E+00
  0.00000000E+00  0.00000000E+00  0.00000000E+00
  0.00000000E+00  0.00000000E+00  0.00000000E+00
  0.00000000E+00  0.00000000E+00  0.00000000E+00
  0.00000000E+00  0.00000000E+00  0.00000000E+00
  0.00000000E+00  0.00000000E+00  0.00000000E+00
  0.00000000E+00  0.00000000E+00  0.00000000E+00
  0.00000000E+00  0.00000000E+00  0.00000000E+00
  0.00000000E+00  0.00000000E+00  0.00000000E+00
  0.00000000E+00  0.00000000E+00  0.00000000E+00
  0.00000000E+00  0.00000000E+00  0.00000000E+00
  0.00000000E+00  0.00000000E+00  0.00000000E+00
  0.00000000E+00  0.00000000E+00  0.00000000E+00
  0.00000000E+00  0.00000000E+00  0.00000000E+00
