2 Te4                                   
   1.00000000000000     
     7.9421876430569061   -0.0006714656530881   -0.0236610029114433
    -1.9858374080558248    3.4396164654670893   -0.0003967672090214
    -0.0972607579278578   -0.0617453404609389   48.7175664222394715
   Mn   Cr   Sn   Se
     1     1     4     8
Direct
  0.3333330000000032  0.3333330000000032  0.3333330000000032
  0.8333330000000032  0.3333330000000032  0.3333330000000032
  0.9986765982937227  0.9985707477838237  0.4054016039806969
  0.4979561889747984  0.9979629725947173  0.4067385661157855
  0.1687108110251983  0.6687040274052723  0.2599284338842184
  0.6679904017062741  0.6680962522161731  0.2612653960193070
  0.3279336520136624  0.3279859181875325  0.4376129157500412
  0.8379562615256382  0.3379041307413863  0.4370638386423200
  0.3387323479863441  0.3386800818124739  0.2290530842499582
  0.8287097384743682  0.3287618692586201  0.2296021613576793
  0.9864237188485100  0.9864665692825669  0.3046113724675142
  0.5135829549817920  0.0133511542607233  0.3032286285183636
  0.1530840450182050  0.6533158457392734  0.3634383714816403
  0.6802432811514868  0.6802004307174299  0.3620556275324897
 
  0.00000000E+00  0.00000000E+00  0.00000000E+00
  0.00000000E+00  0.00000000E+00  0.00000000E+00
  0.00000000E+00  0.00000000E+00  0.00000000E+00
  0.00000000E+00  0.00000000E+00  0.00000000E+00
  0.00000000E+00  0.00000000E+00  0.00000000E+00
  0.00000000E+00  0.00000000E+00  0.00000000E+00
  0.00000000E+00  0.00000000E+00  0.00000000E+00
  0.00000000E+00  0.00000000E+00  0.00000000E+00
  0.00000000E+00  0.00000000E+00  0.00000000E+00
  0.00000000E+00  0.00000000E+00  0.00000000E+00
  0.00000000E+00  0.00000000E+00  0.00000000E+00
  0.00000000E+00  0.00000000E+00  0.00000000E+00
  0.00000000E+00  0.00000000E+00  0.00000000E+00
  0.00000000E+00  0.00000000E+00  0.00000000E+00
