2 Te4                                   
   1.00000000000000     
     8.5374949392079174    0.0027449775058247   -0.0110611848594252
    -2.1331861354535220    3.6948033707861652    0.0000071234538651
    -0.0455701434949813   -0.0262275722715805   42.1802709436770940
   Mn   Ni   Sb   Te
     1     1     4     8
Direct
  0.3333330000000032  0.3333330000000032  0.3333330000000032
  0.8333330000000032  0.3333330000000032  0.3333330000000032
  0.9981247905032165  0.9981252089780316  0.4188048357029125
  0.5021396944494767  0.0021403259552936  0.4176287265797801
  0.1645273055505201  0.6645266740447031  0.2490382734202239
  0.6685422094967803  0.6685417910219652  0.2478621642970915
  0.3383317787896380  0.3383315226285430  0.4580298361990198
  0.8278886221369345  0.3278883694594135  0.4590069995021245
  0.3283342212103684  0.3283344773714634  0.2086361638009795
  0.8387773778630719  0.3387776305405930  0.2076590004978748
  0.9871150473898715  0.9871150709861090  0.2987839583243984
  0.5153176647046979  0.0153161210943014  0.2973559941258196
  0.1513493352952989  0.6513508789056954  0.3693110058741843
  0.6795519526101252  0.6795519290138878  0.3678830416756055
 
  0.00000000E+00  0.00000000E+00  0.00000000E+00
  0.00000000E+00  0.00000000E+00  0.00000000E+00
  0.00000000E+00  0.00000000E+00  0.00000000E+00
  0.00000000E+00  0.00000000E+00  0.00000000E+00
  0.00000000E+00  0.00000000E+00  0.00000000E+00
  0.00000000E+00  0.00000000E+00  0.00000000E+00
  0.00000000E+00  0.00000000E+00  0.00000000E+00
  0.00000000E+00  0.00000000E+00  0.00000000E+00
  0.00000000E+00  0.00000000E+00  0.00000000E+00
  0.00000000E+00  0.00000000E+00  0.00000000E+00
  0.00000000E+00  0.00000000E+00  0.00000000E+00
  0.00000000E+00  0.00000000E+00  0.00000000E+00
  0.00000000E+00  0.00000000E+00  0.00000000E+00
  0.00000000E+00  0.00000000E+00  0.00000000E+00
