2 Te4                                   
   1.00000000000000     
     7.7519480492890755    0.0344048975735154   -0.0364219439718975
    -1.9230868005200576    3.3300640697943256   -0.0000706437554697
    -0.2694224884233825   -0.1564926994987152   51.4221334722311951
   Mn   Rh   Pb   S 
     1     1     4     8
Direct
  0.3333330000000032  0.3333330000000032  0.3333330000000032
  0.8333330000000032  0.3333330000000032  0.3333330000000032
  0.9986120830983055  0.9986528265669684  0.3995503538321604
  0.4986348970156227  0.9986231277414961  0.3995101985802920
  0.1680321029843741  0.6680438722585007  0.2671568014197119
  0.6680549169016984  0.6680141734330284  0.2671166461678435
  0.3313030996911163  0.3312182879798115  0.4287715190627740
  0.8351866654574401  0.3352277195364416  0.4286907416567127
  0.3353629003088902  0.3354477120201949  0.2378944809372250
  0.8314793345425663  0.3314382804635648  0.2379752583432866
  0.9727896401365650  0.9728721270865113  0.3104831360942619
  0.5251807143986938  0.0250477070828192  0.3090012765718555
  0.1414862856013030  0.6416192929171776  0.3576657234281484
  0.6938773598634318  0.6937948729134855  0.3561838639057420
 
  0.00000000E+00  0.00000000E+00  0.00000000E+00
  0.00000000E+00  0.00000000E+00  0.00000000E+00
  0.00000000E+00  0.00000000E+00  0.00000000E+00
  0.00000000E+00  0.00000000E+00  0.00000000E+00
  0.00000000E+00  0.00000000E+00  0.00000000E+00
  0.00000000E+00  0.00000000E+00  0.00000000E+00
  0.00000000E+00  0.00000000E+00  0.00000000E+00
  0.00000000E+00  0.00000000E+00  0.00000000E+00
  0.00000000E+00  0.00000000E+00  0.00000000E+00
  0.00000000E+00  0.00000000E+00  0.00000000E+00
  0.00000000E+00  0.00000000E+00  0.00000000E+00
  0.00000000E+00  0.00000000E+00  0.00000000E+00
  0.00000000E+00  0.00000000E+00  0.00000000E+00
  0.00000000E+00  0.00000000E+00  0.00000000E+00
