2 Te4                                   
   1.00000000000000     
     7.9145685732555346   -0.0042829213743105   -0.0004447018028889
    -1.9804976811127872    3.4303304427983758    0.0000056407625201
     0.0052209693556419    0.0030853113496999   49.0324344687456772
   Mn   Pd   Bi   S 
     1     1     4     8
Direct
  0.3333330000000032  0.3333330000000032  0.3333330000000032
  0.8333330000000032  0.3333330000000032  0.3333330000000032
  0.9983651207282593  0.9983651505477579  0.4002029073844612
  0.5013363043400327  0.0013363530539079  0.3997423331281462
  0.1653306956599641  0.6653306469460888  0.2669246668718577
  0.6683018792717375  0.6683018494522389  0.2664640926155427
  0.3357364451952559  0.3357362873516479  0.4301409285761456
  0.8308577366892232  0.3308576205526167  0.4306493107731549
  0.3309295548047506  0.3309297126483585  0.2365250714238537
  0.8358082633107832  0.3358083794473897  0.2360166892268445
  0.9954645938817557  0.9954630802983787  0.3069158488136753
  0.5047798419867739  0.0047797115622060  0.3061554253096299
  0.1618871580132231  0.6618872884377907  0.3605115746903740
  0.6712024061182411  0.6712039197016181  0.3597511511863286
 
  0.00000000E+00  0.00000000E+00  0.00000000E+00
  0.00000000E+00  0.00000000E+00  0.00000000E+00
  0.00000000E+00  0.00000000E+00  0.00000000E+00
  0.00000000E+00  0.00000000E+00  0.00000000E+00
  0.00000000E+00  0.00000000E+00  0.00000000E+00
  0.00000000E+00  0.00000000E+00  0.00000000E+00
  0.00000000E+00  0.00000000E+00  0.00000000E+00
  0.00000000E+00  0.00000000E+00  0.00000000E+00
  0.00000000E+00  0.00000000E+00  0.00000000E+00
  0.00000000E+00  0.00000000E+00  0.00000000E+00
  0.00000000E+00  0.00000000E+00  0.00000000E+00
  0.00000000E+00  0.00000000E+00  0.00000000E+00
  0.00000000E+00  0.00000000E+00  0.00000000E+00
  0.00000000E+00  0.00000000E+00  0.00000000E+00
