2 Te4                                   
   1.00000000000000     
     8.0110742986384036   -0.0143129708250540   -0.0224342640429110
    -2.0089721001521510    3.4766553123696595   -0.0001799795308268
    -0.0515137581714592   -0.0321777334920022   47.8309450454615828
   Mn   Cd   Sn   Se
     1     1     4     8
Direct
  0.3333330000000032  0.3333330000000032  0.3333330000000032
  0.8333330000000032  0.3333330000000032  0.3333330000000032
  0.9983084919541197  0.9983780125204975  0.4069123570592176
  0.4977075648526317  0.9977245361618098  0.4070300419858396
  0.1689594351473651  0.6689424638381870  0.2596369580141643
  0.6683585080458770  0.6682889874794993  0.2597546429407863
  0.3360839010926115  0.3359001963736397  0.4386318296608808
  0.8282504066480082  0.3282412443010817  0.4385756013046054
  0.3305820989073949  0.3307658036263668  0.2280341703391185
  0.8384155933519982  0.3384247556989318  0.2280903986953939
  0.0144447258111133  0.0142984891810028  0.3000604806513018
  0.4883911654401724  0.9882431804367146  0.3014942906039675
  0.1782758345598244  0.6784238195632822  0.3651727093960364
  0.6522222741888836  0.6523685108189942  0.3666065193487021
 
  0.00000000E+00  0.00000000E+00  0.00000000E+00
  0.00000000E+00  0.00000000E+00  0.00000000E+00
  0.00000000E+00  0.00000000E+00  0.00000000E+00
  0.00000000E+00  0.00000000E+00  0.00000000E+00
  0.00000000E+00  0.00000000E+00  0.00000000E+00
  0.00000000E+00  0.00000000E+00  0.00000000E+00
  0.00000000E+00  0.00000000E+00  0.00000000E+00
  0.00000000E+00  0.00000000E+00  0.00000000E+00
  0.00000000E+00  0.00000000E+00  0.00000000E+00
  0.00000000E+00  0.00000000E+00  0.00000000E+00
  0.00000000E+00  0.00000000E+00  0.00000000E+00
  0.00000000E+00  0.00000000E+00  0.00000000E+00
  0.00000000E+00  0.00000000E+00  0.00000000E+00
  0.00000000E+00  0.00000000E+00  0.00000000E+00
