2 Te4                                   
   1.00000000000000     
     7.6119934050036235   -0.0096380273871355   -0.0270045327829145
    -1.9071726584303021    3.3032745747846435    0.0000266182617311
     0.1811282456898171    0.1050469730523219   52.9637156582848974
   Mn   Sn   S 
     2     4     8
Direct
  0.3333330000000032  0.3333330000000032  0.3333330000000032
  0.8333330000000032  0.3333330000000032  0.3333330000000032
  0.9988264647798352  0.9988296084612249  0.3966777617580339
  0.4988264647798348  0.9988296084612249  0.3966777617580339
  0.1678405352201620  0.6678373915387719  0.2699892382419700
  0.6678405352201616  0.6678373915387719  0.2699892382419700
  0.3324105589338471  0.3324044137773774  0.4234367658619185
  0.8324105589338471  0.3324044137773774  0.4234367658619185
  0.3342554410661593  0.3342615862226290  0.2432292341380809
  0.8342554410661593  0.3342615862226290  0.2432292341380809
  0.0006828247224026  0.0006775643261396  0.3062058379222190
  0.5006828247224027  0.0006775643261396  0.3062058379222190
  0.1659841752775942  0.6659894356738575  0.3604611620777849
  0.6659841752775941  0.6659894356738575  0.3604611620777849
 
  0.00000000E+00  0.00000000E+00  0.00000000E+00
  0.00000000E+00  0.00000000E+00  0.00000000E+00
  0.00000000E+00  0.00000000E+00  0.00000000E+00
  0.00000000E+00  0.00000000E+00  0.00000000E+00
  0.00000000E+00  0.00000000E+00  0.00000000E+00
  0.00000000E+00  0.00000000E+00  0.00000000E+00
  0.00000000E+00  0.00000000E+00  0.00000000E+00
  0.00000000E+00  0.00000000E+00  0.00000000E+00
  0.00000000E+00  0.00000000E+00  0.00000000E+00
  0.00000000E+00  0.00000000E+00  0.00000000E+00
  0.00000000E+00  0.00000000E+00  0.00000000E+00
  0.00000000E+00  0.00000000E+00  0.00000000E+00
  0.00000000E+00  0.00000000E+00  0.00000000E+00
  0.00000000E+00  0.00000000E+00  0.00000000E+00
