2 Te4                                   
   1.00000000000000     
     8.8622068239082488    0.1671755984041839    0.1066761559556246
    -2.1429224972844914    3.7119030609094694    0.0000645539233470
     0.6743097802480074    0.3893720754867017   40.0299131314142471
   Mn   Pd   Bi   Te
     1     1     4     8
Direct
  0.3333330000000032  0.3333330000000032  0.3333330000000032
  0.8333330000000032  0.3333330000000032  0.3333330000000032
  0.9902942958163427  0.9902782467179011  0.4261791750806696
  0.4925538902119048 -0.0074592759204574  0.4237122534514807
  0.1741131097880919  0.6741262759204539  0.2429547465485233
  0.6763727041836541  0.6763887532820957  0.2404878249193343
  0.3308497734508966  0.3308473715393532  0.4671159175292248
  0.8338111405088198  0.3337956000068116  0.4703410281806699
  0.3358162265491098  0.3358186284606532  0.1995500824707747
  0.8328548594911866  0.3328703999931948  0.1963249718193295
  0.9711943726576855  0.9711905360103502  0.3007238491354691
  0.4730079246784995 -0.0269957384647702  0.2920931585187629
  0.1936590753214975  0.6936627384647672  0.3745738414812410
  0.6954726273423113  0.6954764639896466  0.3659431508645348
 
  0.00000000E+00  0.00000000E+00  0.00000000E+00
  0.00000000E+00  0.00000000E+00  0.00000000E+00
  0.00000000E+00  0.00000000E+00  0.00000000E+00
  0.00000000E+00  0.00000000E+00  0.00000000E+00
  0.00000000E+00  0.00000000E+00  0.00000000E+00
  0.00000000E+00  0.00000000E+00  0.00000000E+00
  0.00000000E+00  0.00000000E+00  0.00000000E+00
  0.00000000E+00  0.00000000E+00  0.00000000E+00
  0.00000000E+00  0.00000000E+00  0.00000000E+00
  0.00000000E+00  0.00000000E+00  0.00000000E+00
  0.00000000E+00  0.00000000E+00  0.00000000E+00
  0.00000000E+00  0.00000000E+00  0.00000000E+00
  0.00000000E+00  0.00000000E+00  0.00000000E+00
  0.00000000E+00  0.00000000E+00  0.00000000E+00
