2 Te4                                   
   1.00000000000000     
     8.1998282266413245   -0.0177848725972238    0.0026006168435282
    -2.0576967959796155    3.5520666464494393   -0.0023292868300364
     0.0386782265723871   -0.0077460463139350   45.7479102661796588
   Mn   Sc   Sb   Se
     1     1     4     8
Direct
  0.3333330000000032  0.3333330000000032  0.3333330000000032
  0.8333330000000032  0.3333330000000032  0.3333330000000032
  0.9967974374946884  0.9971718536987533  0.4095405321922372
  0.4953248553463728  0.9952205847061573  0.4139184784157452
  0.1713421446536240  0.6714464152938395  0.2527485215842587
  0.6698695625053084  0.6694951463012435  0.2571264678077667
  0.3346443862373223  0.3346067076155445  0.4445946134480416
  0.8349976581188151  0.3347486937229668  0.4428934557580954
  0.3320216137626841  0.3320592923844620  0.2220713865519577
  0.8316683418811913  0.3319173062770396  0.2237725442419040
  0.9932584028060094  0.9933846052394687  0.2999938095871341
  0.5005437706456455  0.0006402220541619  0.3009450422328050
  0.1661232293543512  0.6660267779458421  0.3657219577671989
  0.6734085971939874  0.6732823947605281  0.3666731904128698
 
  0.00000000E+00  0.00000000E+00  0.00000000E+00
  0.00000000E+00  0.00000000E+00  0.00000000E+00
  0.00000000E+00  0.00000000E+00  0.00000000E+00
  0.00000000E+00  0.00000000E+00  0.00000000E+00
  0.00000000E+00  0.00000000E+00  0.00000000E+00
  0.00000000E+00  0.00000000E+00  0.00000000E+00
  0.00000000E+00  0.00000000E+00  0.00000000E+00
  0.00000000E+00  0.00000000E+00  0.00000000E+00
  0.00000000E+00  0.00000000E+00  0.00000000E+00
  0.00000000E+00  0.00000000E+00  0.00000000E+00
  0.00000000E+00  0.00000000E+00  0.00000000E+00
  0.00000000E+00  0.00000000E+00  0.00000000E+00
  0.00000000E+00  0.00000000E+00  0.00000000E+00
  0.00000000E+00  0.00000000E+00  0.00000000E+00
