2 Te4                                   
   1.00000000000000     
     7.7797824860345539    0.0017229731739701   -0.0488598501580063
    -1.9441986243192497    3.3676103298366029    0.0001305436196855
    -0.2627225457739193   -0.1495032867118927   50.7907745713551790
   Mn   Fe   Pb   S 
     1     1     4     8
Direct
  0.3333330000000032  0.3333330000000032  0.3333330000000032
  0.8333330000000032  0.3333330000000032  0.3333330000000032
  0.0013761563518752  0.0013420379637143  0.4016143167894687
  0.5013858666581696  0.0013530269401619  0.4011807333685221
  0.1652811333418269  0.6653139730598350  0.2654862666314818
  0.6652908436481216  0.6653249620362820  0.2650526832105352
  0.3393936687042288  0.3393352926156965  0.4307270259949101
  0.8359047887925429  0.3358330512109156  0.4309396067625806
  0.3272723312957776  0.3273307073843099  0.2359389740050891
  0.8307612112074635  0.3308329487890909  0.2357263932374187
  0.9889607169168765  0.9889794120473115  0.3080220582826744
  0.5127788171208028  0.0128165553324561  0.3076544880328004
  0.1538881828791938  0.6538504446675407  0.3590125119672035
  0.6777062830831203  0.6776875879526852  0.3586449417173295
 
  0.00000000E+00  0.00000000E+00  0.00000000E+00
  0.00000000E+00  0.00000000E+00  0.00000000E+00
  0.00000000E+00  0.00000000E+00  0.00000000E+00
  0.00000000E+00  0.00000000E+00  0.00000000E+00
  0.00000000E+00  0.00000000E+00  0.00000000E+00
  0.00000000E+00  0.00000000E+00  0.00000000E+00
  0.00000000E+00  0.00000000E+00  0.00000000E+00
  0.00000000E+00  0.00000000E+00  0.00000000E+00
  0.00000000E+00  0.00000000E+00  0.00000000E+00
  0.00000000E+00  0.00000000E+00  0.00000000E+00
  0.00000000E+00  0.00000000E+00  0.00000000E+00
  0.00000000E+00  0.00000000E+00  0.00000000E+00
  0.00000000E+00  0.00000000E+00  0.00000000E+00
  0.00000000E+00  0.00000000E+00  0.00000000E+00
