2 Te4                                   
   1.00000000000000     
     7.6298042603741383    0.0231242220401560   -0.0077455420741087
    -1.8974386705921915    3.2864260116025581    0.0000314710144298
    -0.1292265825432845   -0.0740427552135016   52.9804744348255241
   Mn   Tc   Sn   S 
     1     1     4     8
Direct
  0.3333330000000032  0.3333330000000032  0.3333330000000032
  0.8333330000000032  0.3333330000000032  0.3333330000000032
  0.0028989305095591  0.0028988835935724  0.3995330520514272
  0.5000236597070142  0.0000220762056302  0.4006046990111985
  0.1666433402929823  0.6666449237943665  0.2660623009888054
  0.6637680694904379  0.6637681164064243  0.2671339479485767
  0.3326636101465322  0.3326539827439578  0.4271617790136236
  0.8368984524405844  0.3368918188402651  0.4264755726723232
  0.3340023898534742  0.3340120172560486  0.2395042209863758
  0.8297675475594221  0.3297741811597413  0.2401904273276762
  0.9827458952495322  0.9827469636307995  0.3084550137935872
  0.5187419733949704  0.0187342248279172  0.3076807662462413
  0.1479250266050265  0.6479327751720797  0.3589862337537626
  0.6839211047504646  0.6839200363691973  0.3582119862064167
 
  0.00000000E+00  0.00000000E+00  0.00000000E+00
  0.00000000E+00  0.00000000E+00  0.00000000E+00
  0.00000000E+00  0.00000000E+00  0.00000000E+00
  0.00000000E+00  0.00000000E+00  0.00000000E+00
  0.00000000E+00  0.00000000E+00  0.00000000E+00
  0.00000000E+00  0.00000000E+00  0.00000000E+00
  0.00000000E+00  0.00000000E+00  0.00000000E+00
  0.00000000E+00  0.00000000E+00  0.00000000E+00
  0.00000000E+00  0.00000000E+00  0.00000000E+00
  0.00000000E+00  0.00000000E+00  0.00000000E+00
  0.00000000E+00  0.00000000E+00  0.00000000E+00
  0.00000000E+00  0.00000000E+00  0.00000000E+00
  0.00000000E+00  0.00000000E+00  0.00000000E+00
  0.00000000E+00  0.00000000E+00  0.00000000E+00
