2 Te4                                   
   1.00000000000000     
     7.6052967960705580    0.0594822370760845    0.0429276784211265
    -1.8755996505387365    3.2527622398575042   -0.0000905386221392
     0.2291614534587081    0.1307334154656882   53.5552600514890003
   Mn   Pd   Sn   S 
     1     1     4     8
Direct
  0.3333330000000032  0.3333330000000032  0.3333330000000032
  0.8333330000000032  0.3333330000000032  0.3333330000000032
  0.0041057232229344  0.0036021245485871  0.3944274073576428
  0.5048362943583324  0.0039999754306282  0.3926913558629013
  0.1618307056416643  0.6626670245693688  0.2739756441371026
  0.6625612767770626  0.6630648754514097  0.2722395926423611
  0.3418054342004788  0.3420019753549888  0.4196807727538915
  0.8336868578633104  0.3334124894134812  0.4205672658148593
  0.3248605657995276  0.3246640246450176  0.2469852272461077
  0.8329791421366960  0.3332535105865252  0.2460987341851401
  0.9814784098403051  0.9778325567393839  0.3090261915929006
  0.4859594842485540  0.9855830766509885  0.3059196282894079
  0.1807075157514427  0.6810839233490082  0.3607473717105960
  0.6851885901596917  0.6888344432606129  0.3576408084071033
 
  0.00000000E+00  0.00000000E+00  0.00000000E+00
  0.00000000E+00  0.00000000E+00  0.00000000E+00
  0.00000000E+00  0.00000000E+00  0.00000000E+00
  0.00000000E+00  0.00000000E+00  0.00000000E+00
  0.00000000E+00  0.00000000E+00  0.00000000E+00
  0.00000000E+00  0.00000000E+00  0.00000000E+00
  0.00000000E+00  0.00000000E+00  0.00000000E+00
  0.00000000E+00  0.00000000E+00  0.00000000E+00
  0.00000000E+00  0.00000000E+00  0.00000000E+00
  0.00000000E+00  0.00000000E+00  0.00000000E+00
  0.00000000E+00  0.00000000E+00  0.00000000E+00
  0.00000000E+00  0.00000000E+00  0.00000000E+00
  0.00000000E+00  0.00000000E+00  0.00000000E+00
  0.00000000E+00  0.00000000E+00  0.00000000E+00
