2 Te4                                   
   1.00000000000000     
     7.8754836135970283   -0.0392429462945530   -0.0112859551739518
    -1.9858751739425355    3.4375449879771987   -0.0000820584282269
    -0.0360614056596099   -0.0220072226091939   49.2989804602464687
   Mn   Cu   Sn   Se
     1     1     4     8
Direct
  0.3333330000000032  0.3333330000000032  0.3333330000000032
  0.8333330000000032  0.3333330000000032  0.3333330000000032
  0.9986389552325887  0.9986407663407811  0.4030626296356835
  0.5004044026751608  0.0004231400301643  0.3998757687858646
  0.1662625973248359  0.6662438599698325  0.2667912312141393
  0.6680280447674081  0.6680262336592157  0.2636043703643204
  0.3405214982851950  0.3403828144807289  0.4321741355990897
  0.8271018058898163  0.3271589934082004  0.4332336033749874
  0.3261445017148115  0.3262831855192775  0.2344918644009096
  0.8395641941101901  0.3395070065918060  0.2334323966250119
  0.9957854454166502  0.9958570214091934  0.3040699668989665
  0.5099290112949540  0.0096584706761766  0.3038847452967695
  0.1567379887050429  0.6570085293238203  0.3627822547032344
  0.6708815545833466  0.6708099785908034  0.3625970331010374
 
  0.00000000E+00  0.00000000E+00  0.00000000E+00
  0.00000000E+00  0.00000000E+00  0.00000000E+00
  0.00000000E+00  0.00000000E+00  0.00000000E+00
  0.00000000E+00  0.00000000E+00  0.00000000E+00
  0.00000000E+00  0.00000000E+00  0.00000000E+00
  0.00000000E+00  0.00000000E+00  0.00000000E+00
  0.00000000E+00  0.00000000E+00  0.00000000E+00
  0.00000000E+00  0.00000000E+00  0.00000000E+00
  0.00000000E+00  0.00000000E+00  0.00000000E+00
  0.00000000E+00  0.00000000E+00  0.00000000E+00
  0.00000000E+00  0.00000000E+00  0.00000000E+00
  0.00000000E+00  0.00000000E+00  0.00000000E+00
  0.00000000E+00  0.00000000E+00  0.00000000E+00
  0.00000000E+00  0.00000000E+00  0.00000000E+00
