2 Te4                                   
   1.00000000000000     
     8.6350991412090750    0.0140776976149450   -0.0228392272712755
    -2.1526670719463046    3.7259240831353577   -0.0000705001818877
    -0.1629100400182629   -0.0910313437479630   41.3244191163711889
   Mn   Ag   Pb   Te
     1     1     4     8
Direct
  0.3333330000000032  0.3333330000000032  0.3333330000000032
  0.8333330000000032  0.3333330000000032  0.3333330000000032
  0.9972906464853838  0.9973341301340759  0.4275022647796128
  0.4995532104117692  0.9994772463518669  0.4264186315961171
  0.1671137895882276  0.6671897536481299  0.2402483684038867
  0.6693763535146130  0.6693328698659209  0.2391647352203910
  0.3347152470058565  0.3345942795662178  0.4691189024221268
  0.8323191885848118  0.3322665357495178  0.4697976561127226
  0.3319507529941499  0.3320717204337886  0.1975470975778725
  0.8343468114151946  0.3343994642504886  0.1968683438872767
  0.0024008202952310  0.0021371729359625  0.2970045177064488
  0.4925991096669676  0.9924345691371335  0.2965158972864472
  0.1740678903330291  0.6742324308628632  0.3701511027135567
  0.6642661797047659  0.6645298270640342  0.3696624822935551
 
  0.00000000E+00  0.00000000E+00  0.00000000E+00
  0.00000000E+00  0.00000000E+00  0.00000000E+00
  0.00000000E+00  0.00000000E+00  0.00000000E+00
  0.00000000E+00  0.00000000E+00  0.00000000E+00
  0.00000000E+00  0.00000000E+00  0.00000000E+00
  0.00000000E+00  0.00000000E+00  0.00000000E+00
  0.00000000E+00  0.00000000E+00  0.00000000E+00
  0.00000000E+00  0.00000000E+00  0.00000000E+00
  0.00000000E+00  0.00000000E+00  0.00000000E+00
  0.00000000E+00  0.00000000E+00  0.00000000E+00
  0.00000000E+00  0.00000000E+00  0.00000000E+00
  0.00000000E+00  0.00000000E+00  0.00000000E+00
  0.00000000E+00  0.00000000E+00  0.00000000E+00
  0.00000000E+00  0.00000000E+00  0.00000000E+00
