2 Te4                                   
   1.00000000000000     
     8.2648663086531844   -0.0174763413054848    0.0093624854342500
    -2.0738861381144469    3.5672862739618254   -0.0110885445474690
     0.0966158915742655   -0.0455977580925156   45.1932416455772810
   Mn   Ru   Bi   Se
     1     1     4     8
Direct
  0.3333330000000032  0.3333330000000032  0.3333330000000032
  0.8333330000000032  0.3333330000000032  0.3333330000000032
 -0.0001374466143138 -0.0008918673334158  0.4110855127356421
  0.4987615997475855 -0.0025815130198647  0.4102790571709398
  0.1679054002524115  0.6692485130198615  0.2563879428290641
  0.6668044466143106  0.6675588673334125  0.2555814872643618
  0.3327284478852494  0.3353918021476099  0.4458126108301623
  0.8326277037066206  0.3311117313779771  0.4459827265045395
  0.3339375521147571  0.3312741978523965  0.2208533891698370
  0.8340382962933858  0.3355542686220294  0.2206832734954597
  0.0001740724869657 -0.0046520136400927  0.3012228733687745
  0.5005669181800686  0.0057770150618945  0.3013274463487076
  0.1661000818199282  0.6608899849381021  0.3653395536512963
  0.6664929275130309  0.6713190136400892  0.3654441266312294
 
  0.00000000E+00  0.00000000E+00  0.00000000E+00
  0.00000000E+00  0.00000000E+00  0.00000000E+00
  0.00000000E+00  0.00000000E+00  0.00000000E+00
  0.00000000E+00  0.00000000E+00  0.00000000E+00
  0.00000000E+00  0.00000000E+00  0.00000000E+00
  0.00000000E+00  0.00000000E+00  0.00000000E+00
  0.00000000E+00  0.00000000E+00  0.00000000E+00
  0.00000000E+00  0.00000000E+00  0.00000000E+00
  0.00000000E+00  0.00000000E+00  0.00000000E+00
  0.00000000E+00  0.00000000E+00  0.00000000E+00
  0.00000000E+00  0.00000000E+00  0.00000000E+00
  0.00000000E+00  0.00000000E+00  0.00000000E+00
  0.00000000E+00  0.00000000E+00  0.00000000E+00
  0.00000000E+00  0.00000000E+00  0.00000000E+00
