2 Te4                                   
   1.00000000000000     
     8.3796105420283045    0.0018461961058560    0.0101960120711935
    -2.0941013546897582    3.6248696036887535   -0.0002638280898194
     0.0267600430646462    0.0122694977659806   43.8066315072213612
   Mn   Ni   Sn   Te
     1     1     4     8
Direct
  0.3333330000000032  0.3333330000000032  0.3333330000000032
  0.8333330000000032  0.3333330000000032  0.3333330000000032
  0.9988037769376243  0.9988875706272695  0.4188131770347299
  0.5022366232771884  0.0023278216234875  0.4170867785309379
  0.1644303767228083  0.6643391783765094  0.2495802214690660
  0.6678632230623724  0.6677794293727273  0.2478538229652739
  0.3372662862800786  0.3371157401295175  0.4559715620959510
  0.8298664937133019  0.3298670360165942  0.4571620039398050
  0.3293997137199278  0.3295502598704889  0.2106944379040483
  0.8367995062867045  0.3367989639834122  0.2095039960601942
  0.9810247053081228  0.9811398649305428  0.3020018803430875
  0.5196256276805915  0.0195232011694697  0.2987949420926921
  0.1470413723194054  0.6471437988305270  0.3678720579073118
  0.6856422946918740  0.6855271350694540  0.3646651196569164
 
  0.00000000E+00  0.00000000E+00  0.00000000E+00
  0.00000000E+00  0.00000000E+00  0.00000000E+00
  0.00000000E+00  0.00000000E+00  0.00000000E+00
  0.00000000E+00  0.00000000E+00  0.00000000E+00
  0.00000000E+00  0.00000000E+00  0.00000000E+00
  0.00000000E+00  0.00000000E+00  0.00000000E+00
  0.00000000E+00  0.00000000E+00  0.00000000E+00
  0.00000000E+00  0.00000000E+00  0.00000000E+00
  0.00000000E+00  0.00000000E+00  0.00000000E+00
  0.00000000E+00  0.00000000E+00  0.00000000E+00
  0.00000000E+00  0.00000000E+00  0.00000000E+00
  0.00000000E+00  0.00000000E+00  0.00000000E+00
  0.00000000E+00  0.00000000E+00  0.00000000E+00
  0.00000000E+00  0.00000000E+00  0.00000000E+00
