2 Te4                                   
   1.00000000000000     
     8.6119336472929362   -0.0013992792304371   -0.0010473196471485
    -2.1535906108608858    3.7301265886347243    0.0000375709683043
    -0.0046409521960272   -0.0022845246848945   41.4311950780302638
   Mn   V    Sb   Te
     1     1     4     8
Direct
  0.3333330000000032  0.3333330000000032  0.3333330000000032
  0.8333330000000032  0.3333330000000032  0.3333330000000032
  0.9984755231309936  0.9984755897953566  0.4210676794559653
  0.5014126961380109  0.0014109420291064  0.4226123700281186
  0.1652543038619859  0.6652560579708905  0.2440546299718854
  0.6681914768690032  0.6681914102046402  0.2455993205440386
  0.3339425949515986  0.3339372511255624  0.4624285408536339
  0.8326647907651266  0.3326592669229709  0.4622780430892158
  0.3327234050484078  0.3327287488744440  0.2042374591463653
  0.8340012092348799  0.3340067330770355  0.2043879569107835
  0.9970472256046652  0.9970453525833244  0.2950839974655888
  0.5020301213380766  0.0020236578053057  0.2948057166981146
  0.1646368786619203  0.6646433421946910  0.3718612833018893
  0.6696197743953316  0.6696216474166724  0.3715830025344151
 
  0.00000000E+00  0.00000000E+00  0.00000000E+00
  0.00000000E+00  0.00000000E+00  0.00000000E+00
  0.00000000E+00  0.00000000E+00  0.00000000E+00
  0.00000000E+00  0.00000000E+00  0.00000000E+00
  0.00000000E+00  0.00000000E+00  0.00000000E+00
  0.00000000E+00  0.00000000E+00  0.00000000E+00
  0.00000000E+00  0.00000000E+00  0.00000000E+00
  0.00000000E+00  0.00000000E+00  0.00000000E+00
  0.00000000E+00  0.00000000E+00  0.00000000E+00
  0.00000000E+00  0.00000000E+00  0.00000000E+00
  0.00000000E+00  0.00000000E+00  0.00000000E+00
  0.00000000E+00  0.00000000E+00  0.00000000E+00
  0.00000000E+00  0.00000000E+00  0.00000000E+00
  0.00000000E+00  0.00000000E+00  0.00000000E+00
