2 Te4                                   
   1.00000000000000     
     7.9545276522474317    0.0036238751295083   -0.0004081295854841
    -1.9870634812117118    3.4407335952816305    0.0002089233932002
     0.0194512934648204    0.0143620658364156   48.6106311806829012
   Mn   Tc   Sn   Se
     1     1     4     8
Direct
  0.3333330000000032  0.3333330000000032  0.3333330000000032
  0.8333330000000032  0.3333330000000032  0.3333330000000032
  0.0014702811784423  0.0013947114796986  0.4084939594665976
  0.4997522344313987 -0.0001841012761627  0.4099266021666447
  0.1669147655685981  0.6668511012761595  0.2567403978333592
  0.6651967188215544  0.6652722885202980  0.2581730405334063
  0.3318831277960937  0.3317988649078780  0.4407038780609992
  0.8350263126759571  0.3348939160612716  0.4401875680606244
  0.3347828722039127  0.3348671350921285  0.2259621219390001
  0.8316396873240494  0.3317720839387349  0.2264784319393750
  0.9884139633962800  0.9884543035295672  0.3045060527629783
  0.5145855514199928  0.0140770436287622  0.3036019752885107
  0.1520814485800040  0.6525899563712345  0.3630650247114932
  0.6782530366037168  0.6782126964704296  0.3621609472370256
 
  0.00000000E+00  0.00000000E+00  0.00000000E+00
  0.00000000E+00  0.00000000E+00  0.00000000E+00
  0.00000000E+00  0.00000000E+00  0.00000000E+00
  0.00000000E+00  0.00000000E+00  0.00000000E+00
  0.00000000E+00  0.00000000E+00  0.00000000E+00
  0.00000000E+00  0.00000000E+00  0.00000000E+00
  0.00000000E+00  0.00000000E+00  0.00000000E+00
  0.00000000E+00  0.00000000E+00  0.00000000E+00
  0.00000000E+00  0.00000000E+00  0.00000000E+00
  0.00000000E+00  0.00000000E+00  0.00000000E+00
  0.00000000E+00  0.00000000E+00  0.00000000E+00
  0.00000000E+00  0.00000000E+00  0.00000000E+00
  0.00000000E+00  0.00000000E+00  0.00000000E+00
  0.00000000E+00  0.00000000E+00  0.00000000E+00
