2 Te4                                   
   1.00000000000000     
     7.9645005563473452   -0.0108204397808766    0.0023221321488835
    -1.9958104776696575    3.4574857117822031    0.0002095580643102
     0.0290445126752651    0.0198193903263310   48.3651850934174234
   Mn   Mo   Sn   Se
     1     1     4     8
Direct
  0.3333330000000032  0.3333330000000032  0.3333330000000032
  0.8333330000000032  0.3333330000000032  0.3333330000000032
  0.9996488637898144  0.9996665972462266  0.4072891242284075
  0.4981923871889554  0.9981830527399763  0.4095761098880150
  0.1684746128110413  0.6684839472600276  0.2570908901119889
  0.6670181362101824  0.6670004027537701  0.2593778757715964
  0.3249190725811230  0.3249071612338632  0.4402548269078437
  0.8392928923255070  0.3392781104982612  0.4393310013298734
  0.3417469274188834  0.3417588387661433  0.2264111730921557
  0.8273731076744995  0.3273878895017452  0.2273349986701259
  0.9910966822944257  0.9910478814467415  0.3034017960113938
  0.5108636763751245  0.0107783871219734  0.3024995562881969
  0.1558033236248723  0.6558886128780232  0.3641674437118070
  0.6755703177055711  0.6756191185532553  0.3632652039886101
 
  0.00000000E+00  0.00000000E+00  0.00000000E+00
  0.00000000E+00  0.00000000E+00  0.00000000E+00
  0.00000000E+00  0.00000000E+00  0.00000000E+00
  0.00000000E+00  0.00000000E+00  0.00000000E+00
  0.00000000E+00  0.00000000E+00  0.00000000E+00
  0.00000000E+00  0.00000000E+00  0.00000000E+00
  0.00000000E+00  0.00000000E+00  0.00000000E+00
  0.00000000E+00  0.00000000E+00  0.00000000E+00
  0.00000000E+00  0.00000000E+00  0.00000000E+00
  0.00000000E+00  0.00000000E+00  0.00000000E+00
  0.00000000E+00  0.00000000E+00  0.00000000E+00
  0.00000000E+00  0.00000000E+00  0.00000000E+00
  0.00000000E+00  0.00000000E+00  0.00000000E+00
  0.00000000E+00  0.00000000E+00  0.00000000E+00
