2 Te4                                   
   1.00000000000000     
     8.5544781292009908   -0.0385023427997278    0.0195717573167991
    -2.1552920045472050    3.7331845356374438    0.0002824017179394
     0.0681278723236729    0.0466035655104219   41.7801752796441548
   Mn   Zn   Pb   Te
     1     1     4     8
Direct
  0.3333330000000032  0.3333330000000032  0.3333330000000032
  0.8333330000000032  0.3333330000000032  0.3333330000000032
  0.9987303844932133  0.9989155730253430  0.4274243829390966
  0.5011379054366610  0.0011443070810515  0.4251857508180528
  0.1655290945633359  0.6655226929189454  0.2414812491819511
  0.6679366155067835  0.6677514269746538  0.2392426170609073
  0.3374056675753794  0.3372904741465346  0.4681877798752577
  0.8291959111227354  0.3291846314596582  0.4690519851212609
  0.3292603324246270  0.3293755258534719  0.1984782201247416
  0.8374700888772710  0.3374813685403483  0.1976140148787384
  0.9962771690805817  0.9960451291493415  0.2971902902925269
  0.5011908994595848  0.0012720112699519  0.2975023156277877
  0.1654761005404117  0.6653949887300449  0.3691646843722162
  0.6703898309194151  0.6706218708506553  0.3694767097074770
 
  0.00000000E+00  0.00000000E+00  0.00000000E+00
  0.00000000E+00  0.00000000E+00  0.00000000E+00
  0.00000000E+00  0.00000000E+00  0.00000000E+00
  0.00000000E+00  0.00000000E+00  0.00000000E+00
  0.00000000E+00  0.00000000E+00  0.00000000E+00
  0.00000000E+00  0.00000000E+00  0.00000000E+00
  0.00000000E+00  0.00000000E+00  0.00000000E+00
  0.00000000E+00  0.00000000E+00  0.00000000E+00
  0.00000000E+00  0.00000000E+00  0.00000000E+00
  0.00000000E+00  0.00000000E+00  0.00000000E+00
  0.00000000E+00  0.00000000E+00  0.00000000E+00
  0.00000000E+00  0.00000000E+00  0.00000000E+00
  0.00000000E+00  0.00000000E+00  0.00000000E+00
  0.00000000E+00  0.00000000E+00  0.00000000E+00
