2 Te4                                   
   1.00000000000000     
     8.7597670390438491   -0.0044814326253300    0.0013621227257335
    -2.1918829504774751    3.7964295249722864    0.0000252568766234
     0.0080550326311861    0.0049307736437363   40.0286895877337301
   Mn   V    Bi   Te
     1     1     4     8
Direct
  0.3333330000000032  0.3333330000000032  0.3333330000000032
  0.8333330000000032  0.3333330000000032  0.3333330000000032
  0.9985931979769664  0.9985860816506985  0.4257501663876931
  0.5013781404472267  0.0013605200059454  0.4272749549438988
  0.1652888595527702  0.6653064799940513  0.2393920450561052
  0.6680738020230303  0.6680809183492983  0.2409168336123107
  0.3331571493056943  0.3331252987928849  0.4699100193278928
  0.8333943199204354  0.3333665947299378  0.4698561303723889
  0.3335088506943121  0.3335407012071215  0.1967559806721064
  0.8332716800795710  0.3332994052700686  0.1968098696276105
  0.9975970616020176  0.9976090978695268  0.2946077912198212
  0.5018238641662696  0.0018279421510665  0.2943109815317372
  0.1648431358337272  0.6648390578489305  0.3723560184682667
  0.6690699383979792  0.6690579021304700  0.3720592087801827
 
  0.00000000E+00  0.00000000E+00  0.00000000E+00
  0.00000000E+00  0.00000000E+00  0.00000000E+00
  0.00000000E+00  0.00000000E+00  0.00000000E+00
  0.00000000E+00  0.00000000E+00  0.00000000E+00
  0.00000000E+00  0.00000000E+00  0.00000000E+00
  0.00000000E+00  0.00000000E+00  0.00000000E+00
  0.00000000E+00  0.00000000E+00  0.00000000E+00
  0.00000000E+00  0.00000000E+00  0.00000000E+00
  0.00000000E+00  0.00000000E+00  0.00000000E+00
  0.00000000E+00  0.00000000E+00  0.00000000E+00
  0.00000000E+00  0.00000000E+00  0.00000000E+00
  0.00000000E+00  0.00000000E+00  0.00000000E+00
  0.00000000E+00  0.00000000E+00  0.00000000E+00
  0.00000000E+00  0.00000000E+00  0.00000000E+00
