2 Te4                                   
   1.00000000000000     
     8.1572321455504628    0.0212962222869209   -0.0297147400311303
    -2.0300853855696790    3.5151989727616781    0.0002411394866374
    -0.0845769626967225   -0.0458501548617955   46.3412422492543143
   Mn   Ag   Pb   Se
     1     1     4     8
Direct
  0.3333330000000032  0.3333330000000032  0.3333330000000032
  0.8333330000000032  0.3333330000000032  0.3333330000000032
  0.9966973407744553  0.9968015011513176  0.4106556892919771
  0.4988216438398159  0.9987757735552935  0.4092914787722653
  0.1678453561601809  0.6678912264447033  0.2573755212277386
  0.6699696592255415  0.6698654988486792  0.2560113107080268
  0.3354837183088126  0.3352745257497462  0.4439890455062002
  0.8280445278722900  0.3280879110968554  0.4446395091076704
  0.3311822816911938  0.3313914742502602  0.2226769544937991
  0.8386214721277164  0.3385780889031510  0.2220264908923290
  0.0108320824979249  0.0105622322042659  0.3024355939948906
  0.4906464683953030  0.9903750841655627  0.3033229149177885
  0.1760205316046938  0.6762919158344340  0.3633440850822154
  0.6558349175020790  0.6561047677957310  0.3642314060051133
 
  0.00000000E+00  0.00000000E+00  0.00000000E+00
  0.00000000E+00  0.00000000E+00  0.00000000E+00
  0.00000000E+00  0.00000000E+00  0.00000000E+00
  0.00000000E+00  0.00000000E+00  0.00000000E+00
  0.00000000E+00  0.00000000E+00  0.00000000E+00
  0.00000000E+00  0.00000000E+00  0.00000000E+00
  0.00000000E+00  0.00000000E+00  0.00000000E+00
  0.00000000E+00  0.00000000E+00  0.00000000E+00
  0.00000000E+00  0.00000000E+00  0.00000000E+00
  0.00000000E+00  0.00000000E+00  0.00000000E+00
  0.00000000E+00  0.00000000E+00  0.00000000E+00
  0.00000000E+00  0.00000000E+00  0.00000000E+00
  0.00000000E+00  0.00000000E+00  0.00000000E+00
  0.00000000E+00  0.00000000E+00  0.00000000E+00
