2 Te4                                   
   1.00000000000000     
     7.5743173925954972    0.0199627250000462   -0.0009708021237237
    -1.8879216891509141    3.2656736919065872    0.0153960884294017
    -0.5876547639928836   -0.3486091818618402   53.7181521392660528
   Mn   Ru   Sn   S 
     1     1     4     8
Direct
  0.3333330000000032  0.3333330000000032  0.3333330000000032
  0.8333330000000032  0.3333330000000032  0.3333330000000032
 -0.0032646496445094 -0.0065896275073560  0.3938372120816387
  0.4991799755241461 -0.0042666895605667  0.3946621883014589
  0.1674870244758507  0.6709336895605629  0.2720048116985451
  0.6699316496445056  0.6732566275073530  0.2728297879183652
  0.3215641056233270  0.3164185897114388  0.4207975525223110
  0.8426645969324984  0.3376577304091943  0.4206156037358627
  0.3451018943766794  0.3502474102885677  0.2458684474776882
  0.8240014030675079  0.3290082695908122  0.2460503962641370
  0.9645267746365180  0.9659677577800532  0.3097422287017041
  0.5302105919876721  0.0316803564857603  0.3082267641846105
  0.1364564080123243  0.6349866435142363  0.3584402358153934
  0.7021402253634786  0.7006992422199436  0.3569247712982998
 
  0.00000000E+00  0.00000000E+00  0.00000000E+00
  0.00000000E+00  0.00000000E+00  0.00000000E+00
  0.00000000E+00  0.00000000E+00  0.00000000E+00
  0.00000000E+00  0.00000000E+00  0.00000000E+00
  0.00000000E+00  0.00000000E+00  0.00000000E+00
  0.00000000E+00  0.00000000E+00  0.00000000E+00
  0.00000000E+00  0.00000000E+00  0.00000000E+00
  0.00000000E+00  0.00000000E+00  0.00000000E+00
  0.00000000E+00  0.00000000E+00  0.00000000E+00
  0.00000000E+00  0.00000000E+00  0.00000000E+00
  0.00000000E+00  0.00000000E+00  0.00000000E+00
  0.00000000E+00  0.00000000E+00  0.00000000E+00
  0.00000000E+00  0.00000000E+00  0.00000000E+00
  0.00000000E+00  0.00000000E+00  0.00000000E+00
