2 Te4                                   
   1.00000000000000     
     8.8928402075799013    0.0405233959624811   -0.0063073671023067
    -2.2058843501951704    3.8287774415967029   -0.0003126507484415
    -0.0555946987087660   -0.0266209448491962   38.9827295810313856
   Mn   Zr   Bi   Te
     1     1     4     8
Direct
  0.3333330000000032  0.3333330000000032  0.3333330000000032
  0.8333330000000032  0.3333330000000032  0.3333330000000032
  0.0007925452376734 -0.0001059273016121  0.4309036769795926
  0.4994580986805284 -0.0005896593279611  0.4346040362519829
  0.1672089013194685  0.6672566593279582  0.2320629637480210
  0.6658744547623232  0.6667729273016089  0.2357633230204113
  0.3301360769005595  0.3303140374687280  0.4761953266340447
  0.8374644678679505  0.3377363433025394  0.4749496615109190
  0.3365299230994469  0.3363519625312785  0.1904706733659546
  0.8292015321320559  0.3289296566974670  0.1917163384890803
  0.0009201929877956  0.0017347645523591  0.2913574435548804
  0.4963877041378127  0.9945491127492476  0.2926388361793739
  0.1702792958621841  0.6721178872507492  0.3740281638206300
  0.6657468070122013  0.6649322354476377  0.3753095564451235
 
  0.00000000E+00  0.00000000E+00  0.00000000E+00
  0.00000000E+00  0.00000000E+00  0.00000000E+00
  0.00000000E+00  0.00000000E+00  0.00000000E+00
  0.00000000E+00  0.00000000E+00  0.00000000E+00
  0.00000000E+00  0.00000000E+00  0.00000000E+00
  0.00000000E+00  0.00000000E+00  0.00000000E+00
  0.00000000E+00  0.00000000E+00  0.00000000E+00
  0.00000000E+00  0.00000000E+00  0.00000000E+00
  0.00000000E+00  0.00000000E+00  0.00000000E+00
  0.00000000E+00  0.00000000E+00  0.00000000E+00
  0.00000000E+00  0.00000000E+00  0.00000000E+00
  0.00000000E+00  0.00000000E+00  0.00000000E+00
  0.00000000E+00  0.00000000E+00  0.00000000E+00
  0.00000000E+00  0.00000000E+00  0.00000000E+00
