2 Te4                                   
   1.00000000000000     
     8.0394977225992985    0.0224648074372469   -0.0250500665499180
    -2.0001431587524348    3.4620537834470069   -0.0004524762701990
    -0.2010276800407051   -0.1219665556311980   47.7370430132355779
   Mn   Co   Pb   Se
     1     1     4     8
Direct
  0.3333330000000032  0.3333330000000032  0.3333330000000032
  0.8333330000000032  0.3333330000000032  0.3333330000000032
  0.9990120381351358  0.9990568645736950  0.4101948093832092
  0.5023800961086441  0.0024241939369536  0.4087710572428023
  0.1642869038913526  0.6642428060630432  0.2578959427572016
  0.6676549618648610  0.6676101354263018  0.2564721906167947
  0.3384133297982913  0.3383445145677618  0.4428259610852427
  0.8330067681678529  0.3329847780420226  0.4437166597517989
  0.3282526702017151  0.3283214854322447  0.2238400389147566
  0.8336592318321535  0.3336812219579838  0.2229493402482004
  0.9878670803089525  0.9879194881690734  0.3056329458148279
  0.5057776656535594  0.0059015276917912  0.3048244786049444
  0.1608893343464373  0.6607654723082056  0.3618425213950595
  0.6787999196910443  0.6787475118309234  0.3610340541851760
 
  0.00000000E+00  0.00000000E+00  0.00000000E+00
  0.00000000E+00  0.00000000E+00  0.00000000E+00
  0.00000000E+00  0.00000000E+00  0.00000000E+00
  0.00000000E+00  0.00000000E+00  0.00000000E+00
  0.00000000E+00  0.00000000E+00  0.00000000E+00
  0.00000000E+00  0.00000000E+00  0.00000000E+00
  0.00000000E+00  0.00000000E+00  0.00000000E+00
  0.00000000E+00  0.00000000E+00  0.00000000E+00
  0.00000000E+00  0.00000000E+00  0.00000000E+00
  0.00000000E+00  0.00000000E+00  0.00000000E+00
  0.00000000E+00  0.00000000E+00  0.00000000E+00
  0.00000000E+00  0.00000000E+00  0.00000000E+00
  0.00000000E+00  0.00000000E+00  0.00000000E+00
  0.00000000E+00  0.00000000E+00  0.00000000E+00
