2 Te4                                   
   1.00000000000000     
     7.8570783271298614    0.0186921784271777    0.0130954127883003
    -1.9561707743819774    3.3859590695467192   -0.0003742319320332
    -0.0091260957316796   -0.0108948177709107   49.9541366913574052
   Mn   Pb   S 
     2     4     8
Direct
  0.3333330000000032  0.3333330000000032  0.3333330000000032
  0.8333330000000032  0.3333330000000032  0.3333330000000032
  0.9982002339588111  0.9983012320496357  0.4045410757259633
  0.4982002339588110  0.9983012320496357  0.4045410757259633
  0.1684667660411858  0.6683657679503611  0.2621259242740406
  0.6684667660411857  0.6683657679503611  0.2621259242740406
  0.3308599475347003  0.3307039414569627  0.4348857043491512
  0.8308599475347005  0.3307039414569627  0.4348857043491512
  0.3358060524653061  0.3359620585430437  0.2317802956508482
  0.8358060524653059  0.3359620585430437  0.2317802956508482
  0.9975111432922847  0.9972589121747776  0.3077337859729806
  0.4975111432922846  0.9972589121747776  0.3077337859729806
  0.1691558567077121  0.6694080878252192  0.3589332140270233
  0.6691558567077120  0.6694080878252192  0.3589332140270233
 
  0.00000000E+00  0.00000000E+00  0.00000000E+00
  0.00000000E+00  0.00000000E+00  0.00000000E+00
  0.00000000E+00  0.00000000E+00  0.00000000E+00
  0.00000000E+00  0.00000000E+00  0.00000000E+00
  0.00000000E+00  0.00000000E+00  0.00000000E+00
  0.00000000E+00  0.00000000E+00  0.00000000E+00
  0.00000000E+00  0.00000000E+00  0.00000000E+00
  0.00000000E+00  0.00000000E+00  0.00000000E+00
  0.00000000E+00  0.00000000E+00  0.00000000E+00
  0.00000000E+00  0.00000000E+00  0.00000000E+00
  0.00000000E+00  0.00000000E+00  0.00000000E+00
  0.00000000E+00  0.00000000E+00  0.00000000E+00
  0.00000000E+00  0.00000000E+00  0.00000000E+00
  0.00000000E+00  0.00000000E+00  0.00000000E+00
