2 Te4                                   
   1.00000000000000     
     7.8929036729009310   -0.0255747988526152   -0.0135378706417886
    -1.9843014687629095    3.4367128159899636   -0.0000126980853677
    -0.0448443957983466   -0.0260560798783015   49.1524402572339270
   Mn   Co   Sn   Se
     1     1     4     8
Direct
  0.3333330000000032  0.3333330000000032  0.3333330000000032
  0.8333330000000032  0.3333330000000032  0.3333330000000032
  0.9977097058125040  0.9977063821249817  0.4038083688198050
  0.4996299891233644 -0.0003678006914729  0.4028881003376469
  0.1670370108766252  0.6670348006914698  0.2637788996623570
  0.6689572941874928  0.6689606178750150  0.2628586311801989
  0.3328134960883699  0.3328079331741476  0.4343233677880632
  0.8336709938844659  0.3336599589841455  0.4347481712698276
  0.3338525039116365  0.3338580668258588  0.2323426322119362
  0.8329950061155406  0.3330060410158609  0.2319178287301717
  0.9848483281241047  0.9848444952651114  0.3047257513956937
  0.5146770473214588  0.0146669680947866  0.3034249894842985
  0.1519899526785378  0.6520000319052104  0.3632420105157054
  0.6818186718758921  0.6818225047348854  0.3619412486043102
 
  0.00000000E+00  0.00000000E+00  0.00000000E+00
  0.00000000E+00  0.00000000E+00  0.00000000E+00
  0.00000000E+00  0.00000000E+00  0.00000000E+00
  0.00000000E+00  0.00000000E+00  0.00000000E+00
  0.00000000E+00  0.00000000E+00  0.00000000E+00
  0.00000000E+00  0.00000000E+00  0.00000000E+00
  0.00000000E+00  0.00000000E+00  0.00000000E+00
  0.00000000E+00  0.00000000E+00  0.00000000E+00
  0.00000000E+00  0.00000000E+00  0.00000000E+00
  0.00000000E+00  0.00000000E+00  0.00000000E+00
  0.00000000E+00  0.00000000E+00  0.00000000E+00
  0.00000000E+00  0.00000000E+00  0.00000000E+00
  0.00000000E+00  0.00000000E+00  0.00000000E+00
  0.00000000E+00  0.00000000E+00  0.00000000E+00
