2 Te4                                   
   1.00000000000000     
     8.4562530457094436    0.0034180388182600   -0.0104049899106399
    -2.1125843818071584    3.6589514664175611    0.0000590751895490
    -0.0465362414730166   -0.0262189042330940   43.0007229310525858
   Mn   Ti   Sn   Te
     1     1     4     8
Direct
  0.3333330000000032  0.3333330000000032  0.3333330000000032
  0.8333330000000032  0.3333330000000032  0.3333330000000032
  0.0001981792046895  0.0002005270474972  0.4234506487732247
  0.4966663704094386  0.9966677763047509  0.4257609130608073
  0.1700006295905582  0.6699992236952459  0.2409060869391967
  0.6664688207953073  0.6664664729524995  0.2432163512267791
  0.3291207624543314  0.3291170549758511  0.4640576672160602
  0.8369230497069405  0.3369159508682903  0.4627905053074814
  0.3375452375456751  0.3375489450241553  0.2026083327839391
  0.8297429502930659  0.3297500491317161  0.2038754946925179
  0.9907292143681097  0.9907015804442334  0.2959705889979635
  0.5036978555983112  0.0036985983744471  0.2957360301616225
  0.1629691444016856  0.6629684016255496  0.3709309698383814
  0.6759377856318871  0.6759654195557634  0.3706964110020404
 
  0.00000000E+00  0.00000000E+00  0.00000000E+00
  0.00000000E+00  0.00000000E+00  0.00000000E+00
  0.00000000E+00  0.00000000E+00  0.00000000E+00
  0.00000000E+00  0.00000000E+00  0.00000000E+00
  0.00000000E+00  0.00000000E+00  0.00000000E+00
  0.00000000E+00  0.00000000E+00  0.00000000E+00
  0.00000000E+00  0.00000000E+00  0.00000000E+00
  0.00000000E+00  0.00000000E+00  0.00000000E+00
  0.00000000E+00  0.00000000E+00  0.00000000E+00
  0.00000000E+00  0.00000000E+00  0.00000000E+00
  0.00000000E+00  0.00000000E+00  0.00000000E+00
  0.00000000E+00  0.00000000E+00  0.00000000E+00
  0.00000000E+00  0.00000000E+00  0.00000000E+00
  0.00000000E+00  0.00000000E+00  0.00000000E+00
