2 Te4                                   
   1.00000000000000     
     7.7944337244611104   -0.0228757203639124   -0.0019654664242569
    -1.9586336359436851    3.5034277033044861   -0.0170827998516831
     0.0500984939297016   -0.2188581947656250   48.8153110116128843
   Mn   Rh   Bi   S 
     1     1     4     8
Direct
  0.3333330000000032  0.3333330000000032  0.3333330000000032
  0.8333330000000032  0.3333330000000032  0.3333330000000032
  0.0005922553974800  0.0041646859588186  0.3999278944484848
  0.5056856051094529  0.0212762200008337  0.3999795561156768
  0.1609813948905441  0.6453907799991632  0.2666874438843271
  0.6660747446025168  0.6625023140411785  0.2667391055515191
  0.3358123215416972  0.3249501806337704  0.4302904741007902
  0.8301609682553659  0.3410618312219246  0.4305650185586417
  0.3308536784583093  0.3417158193662360  0.2363755258992092
  0.8365050317446405  0.3256041687780818  0.2361009814413578
  0.9981755747866768  0.0493056471716293  0.3069573520750541
  0.5226363794085689  0.0262445054599305  0.3071958496110517
  0.1440306205914277  0.6404224945400661  0.3594711503889522
  0.6684914252133199  0.6173613528283672  0.3597096479249498
 
  0.00000000E+00  0.00000000E+00  0.00000000E+00
  0.00000000E+00  0.00000000E+00  0.00000000E+00
  0.00000000E+00  0.00000000E+00  0.00000000E+00
  0.00000000E+00  0.00000000E+00  0.00000000E+00
  0.00000000E+00  0.00000000E+00  0.00000000E+00
  0.00000000E+00  0.00000000E+00  0.00000000E+00
  0.00000000E+00  0.00000000E+00  0.00000000E+00
  0.00000000E+00  0.00000000E+00  0.00000000E+00
  0.00000000E+00  0.00000000E+00  0.00000000E+00
  0.00000000E+00  0.00000000E+00  0.00000000E+00
  0.00000000E+00  0.00000000E+00  0.00000000E+00
  0.00000000E+00  0.00000000E+00  0.00000000E+00
  0.00000000E+00  0.00000000E+00  0.00000000E+00
  0.00000000E+00  0.00000000E+00  0.00000000E+00
