2 Te4                                   
   1.00000000000000     
     8.2233865315245982    0.0018516261169530    0.0052995717145287
    -2.0550458349915983    3.5592500952209623    0.0001257253803638
     0.0046786342787211    0.0043181091919481   45.4616647408822345
   Mn   Fe   Bi   Se
     1     1     4     8
Direct
  0.3333330000000032  0.3333330000000032  0.3333330000000032
  0.8333330000000032  0.3333330000000032  0.3333330000000032
  0.9988845910099194  0.9988815032442625  0.4099582946137869
  0.5002839345752202  0.0002842533810137  0.4099308267839870
  0.1663830654247765  0.6663827466189830  0.2567361732160169
  0.6677824089900773  0.6677854967557343  0.2567087053862170
  0.3349783392810012  0.3349855813344790  0.4449251498050016
  0.8314858646380767  0.3314969852583839  0.4451843606018747
  0.3316876607190052  0.3316804186655203  0.2217408501949977
  0.8351801353619297  0.3351690147416225  0.2214816393981246
  0.9946071975638822  0.9946247372093321  0.3023945598082698
  0.5033969913709661  0.0034008564643209  0.3016676599866083
  0.1632700086290307  0.6632661435356759  0.3649993400133956
  0.6720598024361146  0.6720422627906647  0.3642724401917340
 
  0.00000000E+00  0.00000000E+00  0.00000000E+00
  0.00000000E+00  0.00000000E+00  0.00000000E+00
  0.00000000E+00  0.00000000E+00  0.00000000E+00
  0.00000000E+00  0.00000000E+00  0.00000000E+00
  0.00000000E+00  0.00000000E+00  0.00000000E+00
  0.00000000E+00  0.00000000E+00  0.00000000E+00
  0.00000000E+00  0.00000000E+00  0.00000000E+00
  0.00000000E+00  0.00000000E+00  0.00000000E+00
  0.00000000E+00  0.00000000E+00  0.00000000E+00
  0.00000000E+00  0.00000000E+00  0.00000000E+00
  0.00000000E+00  0.00000000E+00  0.00000000E+00
  0.00000000E+00  0.00000000E+00  0.00000000E+00
  0.00000000E+00  0.00000000E+00  0.00000000E+00
  0.00000000E+00  0.00000000E+00  0.00000000E+00
