2 Te4                                   
   1.00000000000000     
     8.2070562116134571   -0.0098544481383358    0.0038336077336788
    -2.0560323144786610    3.5611645709843605    0.0000105680165820
     0.0129400460869572    0.0075935860881034   45.5651449248560496
   Mn   Pd   Bi   Se
     1     1     4     8
Direct
  0.3333330000000032  0.3333330000000032  0.3333330000000032
  0.8333330000000032  0.3333330000000032  0.3333330000000032
  0.9986202677842619  0.9986209444015327  0.4088013106784780
  0.5009113847245834  0.0009108762774416  0.4076139104997156
  0.1657556152754134  0.6657561237225553  0.2590530895002883
  0.6680467322157349  0.6680460555984641  0.2578656893215259
  0.3361832532552113  0.3361794232426052  0.4430140123432088
  0.8305811505405903  0.3305826822848034  0.4437608181926293
  0.3304827467447952  0.3304865767574012  0.2236519876567905
  0.8360848494594161  0.3360833177152031  0.2229051818073700
  0.9939350776968777  0.9939299621464971  0.3038640127249416
  0.5066813052249090  0.0066817811479491  0.3027381848833526
  0.1599856947750879  0.6599852188520476  0.3639288151166513
  0.6727319223031191  0.6727370378534997  0.3628029872750623
 
  0.00000000E+00  0.00000000E+00  0.00000000E+00
  0.00000000E+00  0.00000000E+00  0.00000000E+00
  0.00000000E+00  0.00000000E+00  0.00000000E+00
  0.00000000E+00  0.00000000E+00  0.00000000E+00
  0.00000000E+00  0.00000000E+00  0.00000000E+00
  0.00000000E+00  0.00000000E+00  0.00000000E+00
  0.00000000E+00  0.00000000E+00  0.00000000E+00
  0.00000000E+00  0.00000000E+00  0.00000000E+00
  0.00000000E+00  0.00000000E+00  0.00000000E+00
  0.00000000E+00  0.00000000E+00  0.00000000E+00
  0.00000000E+00  0.00000000E+00  0.00000000E+00
  0.00000000E+00  0.00000000E+00  0.00000000E+00
  0.00000000E+00  0.00000000E+00  0.00000000E+00
  0.00000000E+00  0.00000000E+00  0.00000000E+00
