2 Te4                                   
   1.00000000000000     
     8.0587093190751471    0.0057745014469413   -0.0249082294187631
    -2.0121701591369816    3.4857208335648155   -0.0003992054883948
    -0.1524946804778748   -0.0938641734721893   47.3564582084460710
   Mn   V    Pb   Se
     1     1     4     8
Direct
  0.3333330000000032  0.3333330000000032  0.3333330000000032
  0.8333330000000032  0.3333330000000032  0.3333330000000032
  0.9971909561307397  0.9972101182635421  0.4125706010929027
  0.4985985503394972  0.9986236817288215  0.4129270433378801
  0.1680684496604996  0.6680433182711752  0.2537399566621238
  0.6694760438692571  0.6694568817364547  0.2540963989071012
  0.3320681011312958  0.3320833356290156  0.4465050651974805
  0.8341073304559264  0.3341115252602894  0.4464741635218377
  0.3345978988687107  0.3345826643709908  0.2201609348025189
  0.8325586695440800  0.3325544747397171  0.2201918364781618
  0.9868939636032971  0.9869377547203639  0.3041163527069848
  0.5073630609925721  0.0073412287814740  0.3047324693629977
  0.1593039390074244  0.6593257712185226  0.3619345306370062
  0.6797730363966997  0.6797292452796329  0.3625506472930191
 
  0.00000000E+00  0.00000000E+00  0.00000000E+00
  0.00000000E+00  0.00000000E+00  0.00000000E+00
  0.00000000E+00  0.00000000E+00  0.00000000E+00
  0.00000000E+00  0.00000000E+00  0.00000000E+00
  0.00000000E+00  0.00000000E+00  0.00000000E+00
  0.00000000E+00  0.00000000E+00  0.00000000E+00
  0.00000000E+00  0.00000000E+00  0.00000000E+00
  0.00000000E+00  0.00000000E+00  0.00000000E+00
  0.00000000E+00  0.00000000E+00  0.00000000E+00
  0.00000000E+00  0.00000000E+00  0.00000000E+00
  0.00000000E+00  0.00000000E+00  0.00000000E+00
  0.00000000E+00  0.00000000E+00  0.00000000E+00
  0.00000000E+00  0.00000000E+00  0.00000000E+00
  0.00000000E+00  0.00000000E+00  0.00000000E+00
