2 Te4                                   
   1.00000000000000     
     8.0723311066672814    0.0095972368804601   -0.0318445215164732
    -2.0139271101839600    3.4877669353405802    0.0000249972851861
    -0.1594268330577764   -0.0915354045405690   47.2361157643253549
   Mn   Cr   Pb   Se
     1     1     4     8
Direct
  0.3333330000000032  0.3333330000000032  0.3333330000000032
  0.8333330000000032  0.3333330000000032  0.3333330000000032
  0.9967003688234568  0.9966404410127380  0.4119272840757035
  0.4982460806735569  0.9983397307513462  0.4121897353893610
  0.1684209193264399  0.6683272692486506  0.2544772646106429
  0.6699666311765400  0.6700265589872588  0.2547397159243004
  0.3322031123762971  0.3321573863652903  0.4458077973272173
  0.8334711558669334  0.3334156845801434  0.4459257173037581
  0.3344628876237165  0.3345086136347161  0.2208582026727820
  0.8331948441330730  0.3332503154198631  0.2207402826962412
  0.9885463944977985  0.9885733627977337  0.3048994175422822
  0.5074985642316446  0.0071696396081460  0.3048094357294447
  0.1591684357683520  0.6594973603918508  0.3618575642705592
  0.6781206055021983  0.6780936372022631  0.3617675824577217
 
  0.00000000E+00  0.00000000E+00  0.00000000E+00
  0.00000000E+00  0.00000000E+00  0.00000000E+00
  0.00000000E+00  0.00000000E+00  0.00000000E+00
  0.00000000E+00  0.00000000E+00  0.00000000E+00
  0.00000000E+00  0.00000000E+00  0.00000000E+00
  0.00000000E+00  0.00000000E+00  0.00000000E+00
  0.00000000E+00  0.00000000E+00  0.00000000E+00
  0.00000000E+00  0.00000000E+00  0.00000000E+00
  0.00000000E+00  0.00000000E+00  0.00000000E+00
  0.00000000E+00  0.00000000E+00  0.00000000E+00
  0.00000000E+00  0.00000000E+00  0.00000000E+00
  0.00000000E+00  0.00000000E+00  0.00000000E+00
  0.00000000E+00  0.00000000E+00  0.00000000E+00
  0.00000000E+00  0.00000000E+00  0.00000000E+00
