2 Te4                                   
   1.00000000000000     
     8.1068902696727907   -0.0047080960388625   -0.0022458144294638
    -2.0287621513472534    3.5139168372544280    0.0000054451263133
    -0.0003892013132112   -0.0001518280172925   46.7316189068967205
   Mn   Sb   Se
     2     4     8
Direct
  0.3333330000000032  0.3333330000000032  0.3333330000000032
  0.8333330000000032  0.3333330000000032  0.3333330000000032
  0.9998434573614008  0.9998435144670635  0.4076382471699648
  0.4998434573614008  0.9998435144670635  0.4076382471699648
  0.1668235426385959  0.6668234855329332  0.2590287528300391
  0.6668235426385960  0.6668234855329332  0.2590287528300391
  0.3332251989903989  0.3332252164859827  0.4407314008019750
  0.8332251989903990  0.3332252164859827  0.4407314008019750
  0.3334408010096075  0.3334407835140237  0.2259345991980242
  0.8334408010096074  0.3334407835140237  0.2259345991980242
  0.9999923929493612  0.9999917842757827  0.3014654114767831
  0.4999923929493610  0.9999917842757827  0.3014654114767831
  0.1666746070506357  0.6666752157242141  0.3652015885232208
  0.6666746070506356  0.6666752157242141  0.3652015885232208
 
  0.00000000E+00  0.00000000E+00  0.00000000E+00
  0.00000000E+00  0.00000000E+00  0.00000000E+00
  0.00000000E+00  0.00000000E+00  0.00000000E+00
  0.00000000E+00  0.00000000E+00  0.00000000E+00
  0.00000000E+00  0.00000000E+00  0.00000000E+00
  0.00000000E+00  0.00000000E+00  0.00000000E+00
  0.00000000E+00  0.00000000E+00  0.00000000E+00
  0.00000000E+00  0.00000000E+00  0.00000000E+00
  0.00000000E+00  0.00000000E+00  0.00000000E+00
  0.00000000E+00  0.00000000E+00  0.00000000E+00
  0.00000000E+00  0.00000000E+00  0.00000000E+00
  0.00000000E+00  0.00000000E+00  0.00000000E+00
  0.00000000E+00  0.00000000E+00  0.00000000E+00
  0.00000000E+00  0.00000000E+00  0.00000000E+00
