2 Te4                                   
   1.00000000000000     
     8.3870740851181278    0.1125384641133812   -0.0233984140146674
    -2.0480407742105355    3.5473912355591271   -0.0000836928889900
    -0.1191016385530338   -0.0699785567732923   44.3858268669162470
   Mn   Zr   Bi   Se
     1     1     4     8
Direct
  0.3333330000000032  0.3333330000000032  0.3333330000000032
  0.8333330000000032  0.3333330000000032  0.3333330000000032
  0.0047062800999691  0.0047131202082819  0.4162461521985242
  0.4966246806374732  0.9966313531009737  0.4196166863999110
  0.1700423193625237  0.6700356468990231  0.2470503136000930
  0.6619607199000277  0.6619538797917147  0.2504208478014797
  0.3276385151612924  0.3276360910898595  0.4530759343969023
  0.8378377378573010  0.3378244851063081  0.4507838341525643
  0.3390274848387140  0.3390299089101468  0.2135900656030968
  0.8288282621427054  0.3288415148936983  0.2158821658474350
  0.9875743950450273  0.9875805991654710  0.2987483464515912
  0.5033667378342398  0.0033633334001594  0.3016923524277773
  0.1633002621657569  0.6633036665998374  0.3649746475722266
  0.6790926049549695  0.6790864008345258  0.3679186535484127
 
  0.00000000E+00  0.00000000E+00  0.00000000E+00
  0.00000000E+00  0.00000000E+00  0.00000000E+00
  0.00000000E+00  0.00000000E+00  0.00000000E+00
  0.00000000E+00  0.00000000E+00  0.00000000E+00
  0.00000000E+00  0.00000000E+00  0.00000000E+00
  0.00000000E+00  0.00000000E+00  0.00000000E+00
  0.00000000E+00  0.00000000E+00  0.00000000E+00
  0.00000000E+00  0.00000000E+00  0.00000000E+00
  0.00000000E+00  0.00000000E+00  0.00000000E+00
  0.00000000E+00  0.00000000E+00  0.00000000E+00
  0.00000000E+00  0.00000000E+00  0.00000000E+00
  0.00000000E+00  0.00000000E+00  0.00000000E+00
  0.00000000E+00  0.00000000E+00  0.00000000E+00
  0.00000000E+00  0.00000000E+00  0.00000000E+00
