2 Te4                                   
   1.00000000000000     
     8.2890953251546140   -0.0015165522002272   -0.0073107272035835
    -2.0729314941139387    3.5904507393195022   -0.0000009553038439
    -0.0180683176437542   -0.0102607913407303   44.7199111605345152
   Mn   Tc   Bi   Se
     1     1     4     8
Direct
  0.3333330000000032  0.3333330000000032  0.3333330000000032
  0.8333330000000032  0.3333330000000032  0.3333330000000032
  0.0016141039551420  0.0016147362923032  0.4126986556222689
  0.4982203313439522  0.9982235556337095  0.4122217906314659
  0.1684466686560445  0.6684434443662873  0.2544452093685380
  0.6650528960448547  0.6650522637076934  0.2539683443777350
  0.3309929899391693  0.3309916683136940  0.4478910707937623
  0.8356685201616053  0.3356677075183127  0.4476487399275829
  0.3356730100608371  0.3356743316863124  0.2187749292062370
  0.8309974798384011  0.3309982924816937  0.2190172600724164
  0.0067196772270778  0.0067231091216355  0.2996570090501568
  0.4946211993924803  0.9946210238709461  0.3001122859937285
  0.1720458006075165  0.6720459761290507  0.3665547140062754
  0.6599473227729190  0.6599438908783613  0.3670099909498471
 
  0.00000000E+00  0.00000000E+00  0.00000000E+00
  0.00000000E+00  0.00000000E+00  0.00000000E+00
  0.00000000E+00  0.00000000E+00  0.00000000E+00
  0.00000000E+00  0.00000000E+00  0.00000000E+00
  0.00000000E+00  0.00000000E+00  0.00000000E+00
  0.00000000E+00  0.00000000E+00  0.00000000E+00
  0.00000000E+00  0.00000000E+00  0.00000000E+00
  0.00000000E+00  0.00000000E+00  0.00000000E+00
  0.00000000E+00  0.00000000E+00  0.00000000E+00
  0.00000000E+00  0.00000000E+00  0.00000000E+00
  0.00000000E+00  0.00000000E+00  0.00000000E+00
  0.00000000E+00  0.00000000E+00  0.00000000E+00
  0.00000000E+00  0.00000000E+00  0.00000000E+00
  0.00000000E+00  0.00000000E+00  0.00000000E+00
