2 Te4                                   
   1.00000000000000     
     8.2817961163469587   -0.0396659122155522    0.0239559485571103
    -2.0877009123128061    3.6023547724886944   -0.0018717862540520
     0.1043892296460629    0.0368268779968270   44.7311893580080877
   Mn   Y    Sb   Se
     1     1     4     8
Direct
  0.3333330000000032  0.3333330000000032  0.3333330000000032
  0.8333330000000032  0.3333330000000032  0.3333330000000032
  0.0010176823344123  0.0012466800614072  0.4127573713955611
  0.4962789044248300  0.9961879228288131  0.4167059742409740
  0.1703880955751667  0.6704790771711837  0.2499610257590299
  0.6656493176655844  0.6654203199385894  0.2539096286044428
  0.3302042768712521  0.3302610825291482  0.4478983755370652
  0.8383590691972039  0.3381758256771783  0.4459834958100036
  0.3364617231287543  0.3364049174708583  0.2187676244629341
  0.8283069308028025  0.3284901743228281  0.2206825041899956
  0.0066227571460437  0.0067589507242167  0.2967195488809359
  0.4871962475925455  0.9874002402054652  0.2986566816737042
  0.1794707524074513  0.6792667597945315  0.3680103183262997
  0.6600442428539530  0.6599080492757801  0.3699474511190680
 
  0.00000000E+00  0.00000000E+00  0.00000000E+00
  0.00000000E+00  0.00000000E+00  0.00000000E+00
  0.00000000E+00  0.00000000E+00  0.00000000E+00
  0.00000000E+00  0.00000000E+00  0.00000000E+00
  0.00000000E+00  0.00000000E+00  0.00000000E+00
  0.00000000E+00  0.00000000E+00  0.00000000E+00
  0.00000000E+00  0.00000000E+00  0.00000000E+00
  0.00000000E+00  0.00000000E+00  0.00000000E+00
  0.00000000E+00  0.00000000E+00  0.00000000E+00
  0.00000000E+00  0.00000000E+00  0.00000000E+00
  0.00000000E+00  0.00000000E+00  0.00000000E+00
  0.00000000E+00  0.00000000E+00  0.00000000E+00
  0.00000000E+00  0.00000000E+00  0.00000000E+00
  0.00000000E+00  0.00000000E+00  0.00000000E+00
