2 Te4                                   
   1.00000000000000     
     7.9436434212410161   -0.0033555025997118   -0.0029927388335470
    -1.9873647906683616    3.4422160299196376    0.0000013201115612
     0.0062623226228991    0.0036457493320625   48.6809442433322843
   Mn   Bi   S 
     2     4     8
Direct
  0.3333330000000032  0.3333330000000032  0.3333330000000032
  0.8333330000000032  0.3333330000000032  0.3333330000000032
  0.9998080735971030  0.9998081330554764  0.4023861580159623
  0.4998080735971031  0.9998081330554764  0.4023861580159623
  0.1668589264028937  0.6668588669445203  0.2642808419840416
  0.6668589264028938  0.6668588669445203  0.2642808419840416
  0.3332313289610132  0.3332313492510690  0.4327706776732863
  0.8332313289610133  0.3332313492510690  0.4327706776732863
  0.3334346710389932  0.3334346507489374  0.2338953223267131
  0.8334346710389932  0.3334346507489374  0.2338953223267131
  0.0001477543797227  0.0001473813944382  0.3047955575656897
  0.5001477543797227  0.0001473813944382  0.3047955575656897
  0.1665192456202741  0.6665196186055586  0.3618714424343142
  0.6665192456202741  0.6665196186055586  0.3618714424343142
 
  0.00000000E+00  0.00000000E+00  0.00000000E+00
  0.00000000E+00  0.00000000E+00  0.00000000E+00
  0.00000000E+00  0.00000000E+00  0.00000000E+00
  0.00000000E+00  0.00000000E+00  0.00000000E+00
  0.00000000E+00  0.00000000E+00  0.00000000E+00
  0.00000000E+00  0.00000000E+00  0.00000000E+00
  0.00000000E+00  0.00000000E+00  0.00000000E+00
  0.00000000E+00  0.00000000E+00  0.00000000E+00
  0.00000000E+00  0.00000000E+00  0.00000000E+00
  0.00000000E+00  0.00000000E+00  0.00000000E+00
  0.00000000E+00  0.00000000E+00  0.00000000E+00
  0.00000000E+00  0.00000000E+00  0.00000000E+00
  0.00000000E+00  0.00000000E+00  0.00000000E+00
  0.00000000E+00  0.00000000E+00  0.00000000E+00
