2 Te4                                   
   1.00000000000000     
     8.2095656111663278   -0.0536721001082668   -0.0129033955748501
    -2.0756308287417977    3.5955081541252776   -0.0001038722904156
    -0.1001815107419727   -0.0591473009880570   45.2558515005887756
   Mn   Cr   Bi   Se
     1     1     4     8
Direct
  0.3333330000000032  0.3333330000000032  0.3333330000000032
  0.8333330000000032  0.3333330000000032  0.3333330000000032
  0.0012314558158187  0.0012268061796108  0.4104181295698771
  0.5030939975636307  0.0031345087827352  0.4106942571876644
  0.1635730024363661  0.6635324912172615  0.2559727428123395
  0.6654355441841783  0.6654401938203859  0.2562488704301268
  0.3327512279008850  0.3327385089178753  0.4458162823299455
  0.8321346371577912  0.3321547557132613  0.4456480200278750
  0.3339147720991215  0.3339274910821311  0.2208497176700538
  0.8345313628422152  0.3345112442867451  0.2210179799721243
  0.0050011707959502  0.0051141650509332  0.3009992849199548
  0.5125303694199822  0.0125390647778036  0.3022037627059971
  0.1541366305800146  0.6541279352222001  0.3644632372940068
  0.6616658292040466  0.6615528349490636  0.3656677150800491
 
  0.00000000E+00  0.00000000E+00  0.00000000E+00
  0.00000000E+00  0.00000000E+00  0.00000000E+00
  0.00000000E+00  0.00000000E+00  0.00000000E+00
  0.00000000E+00  0.00000000E+00  0.00000000E+00
  0.00000000E+00  0.00000000E+00  0.00000000E+00
  0.00000000E+00  0.00000000E+00  0.00000000E+00
  0.00000000E+00  0.00000000E+00  0.00000000E+00
  0.00000000E+00  0.00000000E+00  0.00000000E+00
  0.00000000E+00  0.00000000E+00  0.00000000E+00
  0.00000000E+00  0.00000000E+00  0.00000000E+00
  0.00000000E+00  0.00000000E+00  0.00000000E+00
  0.00000000E+00  0.00000000E+00  0.00000000E+00
  0.00000000E+00  0.00000000E+00  0.00000000E+00
  0.00000000E+00  0.00000000E+00  0.00000000E+00
