2 Te4                                   
   1.00000000000000     
     7.6075938758958017    0.0473448579315242   -0.0114376609353501
    -1.8813980564750725    3.2586187198381573   -0.0000036664769354
    -0.1500086196788268   -0.0866367912858740   53.4902765514569651
   Mn   Ti   Sn   S 
     1     1     4     8
Direct
  0.3333330000000032  0.3333330000000032  0.3333330000000032
  0.8333330000000032  0.3333330000000032  0.3333330000000032
  0.9986120783972066  0.9986132682318085  0.4000657294557660
  0.4939240246284989  0.9939244988070551  0.4014373652247746
  0.1727429753714906  0.6727425011929417  0.2652296347752293
  0.6680549216027902  0.6680537317681883  0.2666012705442379
  0.3250515276597744  0.3250510857518222  0.4280475371353130
  0.8344265008411254  0.3344282290244103  0.4268108031736337
  0.3416144723402321  0.3416149142481842  0.2386184628646864
  0.8322394991588811  0.3322377709755961  0.2398551968263655
  0.9787119776445555  0.9787124890972305  0.3075866441333028
  0.5189456275947720  0.0189385765290932  0.3079551394737812
  0.1477213724052249  0.6477284234709035  0.3587118605262227
  0.6879550223554413  0.6879545109027663  0.3590803558667011
 
  0.00000000E+00  0.00000000E+00  0.00000000E+00
  0.00000000E+00  0.00000000E+00  0.00000000E+00
  0.00000000E+00  0.00000000E+00  0.00000000E+00
  0.00000000E+00  0.00000000E+00  0.00000000E+00
  0.00000000E+00  0.00000000E+00  0.00000000E+00
  0.00000000E+00  0.00000000E+00  0.00000000E+00
  0.00000000E+00  0.00000000E+00  0.00000000E+00
  0.00000000E+00  0.00000000E+00  0.00000000E+00
  0.00000000E+00  0.00000000E+00  0.00000000E+00
  0.00000000E+00  0.00000000E+00  0.00000000E+00
  0.00000000E+00  0.00000000E+00  0.00000000E+00
  0.00000000E+00  0.00000000E+00  0.00000000E+00
  0.00000000E+00  0.00000000E+00  0.00000000E+00
  0.00000000E+00  0.00000000E+00  0.00000000E+00
