2 Te4                                   
   1.00000000000000     
     7.9045649711087131    0.0056015145504651   -0.0074758177892643
    -1.9737164951670398    3.4185407362185525   -0.0000286813565015
     0.0494091275093977    0.0281984061440839   49.2282075409760296
   Mn   Ru   Sn   Se
     1     1     4     8
Direct
  0.3333330000000032  0.3333330000000032  0.3333330000000032
  0.8333330000000032  0.3333330000000032  0.3333330000000032
  0.9981525339386602  0.9981290886297643  0.4045390008969618
  0.5013320814065904  0.0013427133123307  0.4051549915198429
  0.1653349185934065  0.6653242866876662  0.2615120084801610
  0.6685144660613366  0.6685379113702324  0.2621279991030421
  0.3296283974526605  0.3296463316639721  0.4358024465841058
  0.8348246433748586  0.3348106858038034  0.4360105708565843
  0.3370376025473459  0.3370196683360344  0.2308635534158935
  0.8318413566251478  0.3318553141962031  0.2306554291434152
  0.9775982125899754  0.9775852592695975  0.3063155381394977
  0.5256254540379544  0.0256461691736487  0.3040262846857668
  0.1410415459620425  0.6410208308263482  0.3626407153142371
  0.6890687874100214  0.6890817407303993  0.3603514618605062
 
  0.00000000E+00  0.00000000E+00  0.00000000E+00
  0.00000000E+00  0.00000000E+00  0.00000000E+00
  0.00000000E+00  0.00000000E+00  0.00000000E+00
  0.00000000E+00  0.00000000E+00  0.00000000E+00
  0.00000000E+00  0.00000000E+00  0.00000000E+00
  0.00000000E+00  0.00000000E+00  0.00000000E+00
  0.00000000E+00  0.00000000E+00  0.00000000E+00
  0.00000000E+00  0.00000000E+00  0.00000000E+00
  0.00000000E+00  0.00000000E+00  0.00000000E+00
  0.00000000E+00  0.00000000E+00  0.00000000E+00
  0.00000000E+00  0.00000000E+00  0.00000000E+00
  0.00000000E+00  0.00000000E+00  0.00000000E+00
  0.00000000E+00  0.00000000E+00  0.00000000E+00
  0.00000000E+00  0.00000000E+00  0.00000000E+00
