2 Te4                                   
   1.00000000000000     
     8.2426940585475208    0.1236079941403049   -0.0069956835484035
    -2.0071505762092707    3.4764710978169391    0.0000064380714060
    -0.1238319803590986   -0.0713475196777985   46.0426714713073508
   Mn   Mo   Sb   Se
     1     1     4     8
Direct
  0.3333330000000032  0.3333330000000032  0.3333330000000032
  0.8333330000000032  0.3333330000000032  0.3333330000000032
  0.9910441393363114  0.9910442999588115  0.4096284507606700
  0.4830881761272224  0.9830870076873183  0.4082119790111868
  0.1835788238727744  0.6835799923126785  0.2584550209888171
  0.6756228606636854  0.6756227000411853  0.2570385492393339
  0.3310964670418839  0.3310971789533478  0.4412431599538852
  0.8442753345589091  0.3442747166217948  0.4426064048134951
  0.3355695329581225  0.3355688210466586  0.2254228400461140
  0.8223906654410973  0.3223912833782117  0.2240595951865040
  0.9948326379441301  0.9948326657110915  0.3021801463095393
  0.4819913919366504  0.9819913343282829  0.2997804613186297
  0.1846756080633463  0.6846756656717139  0.3668865386813742
  0.6718343620558667  0.6718343342889053  0.3644868536904646
 
  0.00000000E+00  0.00000000E+00  0.00000000E+00
  0.00000000E+00  0.00000000E+00  0.00000000E+00
  0.00000000E+00  0.00000000E+00  0.00000000E+00
  0.00000000E+00  0.00000000E+00  0.00000000E+00
  0.00000000E+00  0.00000000E+00  0.00000000E+00
  0.00000000E+00  0.00000000E+00  0.00000000E+00
  0.00000000E+00  0.00000000E+00  0.00000000E+00
  0.00000000E+00  0.00000000E+00  0.00000000E+00
  0.00000000E+00  0.00000000E+00  0.00000000E+00
  0.00000000E+00  0.00000000E+00  0.00000000E+00
  0.00000000E+00  0.00000000E+00  0.00000000E+00
  0.00000000E+00  0.00000000E+00  0.00000000E+00
  0.00000000E+00  0.00000000E+00  0.00000000E+00
  0.00000000E+00  0.00000000E+00  0.00000000E+00
