2 Te4                                   
   1.00000000000000     
     7.8826238773454014   -0.0030037188774056   -0.0239567121163580
    -1.9719576125014266    3.4155405987859231   -0.0000020818088172
    -0.1763387506863643   -0.1019370591054838   49.4404638874798223
   Mn   Cd   Pb   S 
     1     1     4     8
Direct
  0.3333330000000032  0.3333330000000032  0.3333330000000032
  0.8333330000000032  0.3333330000000032  0.3333330000000032
  0.9995548158085399  0.9995525176373982  0.4021043484314584
  0.4988392971941668  0.9988361256616732  0.4024928700899274
  0.1678277028058300  0.6678308743383236  0.2641741299100765
  0.6671121841914569  0.6671144823625986  0.2645626515685455
  0.3364701393899246  0.3364689784899089  0.4322183759478858
  0.8313205740604996  0.3313192869545772  0.4320568969162291
  0.3301958606100818  0.3301970215100976  0.2344476240521135
  0.8353454259395068  0.3353467130454292  0.2346091030837703
  0.0150721107790079  0.0150703226067000  0.3043996417690673
  0.4872562657267474  0.9872617545739985  0.3053484120137164
  0.1794107342732495  0.6794052454259983  0.3613185879862875
  0.6515948892209890  0.6515966773932967  0.3622673582309366
 
  0.00000000E+00  0.00000000E+00  0.00000000E+00
  0.00000000E+00  0.00000000E+00  0.00000000E+00
  0.00000000E+00  0.00000000E+00  0.00000000E+00
  0.00000000E+00  0.00000000E+00  0.00000000E+00
  0.00000000E+00  0.00000000E+00  0.00000000E+00
  0.00000000E+00  0.00000000E+00  0.00000000E+00
  0.00000000E+00  0.00000000E+00  0.00000000E+00
  0.00000000E+00  0.00000000E+00  0.00000000E+00
  0.00000000E+00  0.00000000E+00  0.00000000E+00
  0.00000000E+00  0.00000000E+00  0.00000000E+00
  0.00000000E+00  0.00000000E+00  0.00000000E+00
  0.00000000E+00  0.00000000E+00  0.00000000E+00
  0.00000000E+00  0.00000000E+00  0.00000000E+00
  0.00000000E+00  0.00000000E+00  0.00000000E+00
