2 Te4                                   
   1.00000000000000     
     8.6159962335139539   -0.0022982236784985   -0.0103428259691263
    -2.1551230732195221    3.8100499276346853    0.0016944455070543
    -0.0486976763817441   -0.0064055113196830   40.5453414590289967
   Mn   Rh   Bi   Te
     1     1     4     8
Direct
  0.3333330000000032  0.3333330000000032  0.3333330000000032
  0.8333330000000032  0.3333330000000032  0.3333330000000032
  0.0011682571662378  0.0029645552584176  0.4234411590266584
  0.5062013091333889  0.0255177922106523  0.4227780970234987
  0.1604656908666078  0.6411492077893445  0.2438889029765050
  0.6654987428337593  0.6637024447415792  0.2432258409733456
  0.3357939790077092  0.3304197244341154  0.4659399509060237
  0.8291329548807971  0.3295220038215922  0.4667192874236190
  0.3308720209922972  0.3362462755658910  0.2007260490939757
  0.8375330451192093  0.3371439961784142  0.1999467125763803
  0.9887073549214032  0.0181190193685503  0.2987357819157215
  0.5244454736501757  0.0294286494616929  0.2976553985110460
  0.1422215263498211  0.6372383505383036  0.3690116014889579
  0.6779596450785936  0.6485479806314466  0.3679312180842824
 
  0.00000000E+00  0.00000000E+00  0.00000000E+00
  0.00000000E+00  0.00000000E+00  0.00000000E+00
  0.00000000E+00  0.00000000E+00  0.00000000E+00
  0.00000000E+00  0.00000000E+00  0.00000000E+00
  0.00000000E+00  0.00000000E+00  0.00000000E+00
  0.00000000E+00  0.00000000E+00  0.00000000E+00
  0.00000000E+00  0.00000000E+00  0.00000000E+00
  0.00000000E+00  0.00000000E+00  0.00000000E+00
  0.00000000E+00  0.00000000E+00  0.00000000E+00
  0.00000000E+00  0.00000000E+00  0.00000000E+00
  0.00000000E+00  0.00000000E+00  0.00000000E+00
  0.00000000E+00  0.00000000E+00  0.00000000E+00
  0.00000000E+00  0.00000000E+00  0.00000000E+00
  0.00000000E+00  0.00000000E+00  0.00000000E+00
