2 Te4                                   
   1.00000000000000     
     8.5718676884255292   -0.0591611892784669    0.0175712493709226
    -2.1685909852902912    3.7552953245171232    0.0001377374183404
     0.0870392181514628    0.0520107404976766   41.5076675975074707
   Mn   Y    Sn   Te
     1     1     4     8
Direct
  0.3333330000000032  0.3333330000000032  0.3333330000000032
  0.8333330000000032  0.3333330000000032  0.3333330000000032
  0.0028110566568082  0.0026398943597048  0.4275518999823831
  0.4954883798916879  0.9959050041139663  0.4326814043345260
  0.1711786201083089  0.6707619958860305  0.2339855956654780
  0.6638559433431884  0.6640271056402920  0.2391151000176207
  0.3248250409144005  0.3251171190142442  0.4709851161769775
  0.8415869925678020  0.3411311752562784  0.4682903588150410
  0.3418409590856059  0.3415488809857622  0.1956808838230218
  0.8250790074322044  0.3255348247437280  0.1983756411849584
  0.0117539219230241  0.0117667702508373  0.2894741192783403
  0.4822199309009715  0.9824261960857931  0.2920581512585315
  0.1844470690990253  0.6842408039142037  0.3746088487414724
  0.6549130780769726  0.6549002297491595  0.3771928807216636
 
  0.00000000E+00  0.00000000E+00  0.00000000E+00
  0.00000000E+00  0.00000000E+00  0.00000000E+00
  0.00000000E+00  0.00000000E+00  0.00000000E+00
  0.00000000E+00  0.00000000E+00  0.00000000E+00
  0.00000000E+00  0.00000000E+00  0.00000000E+00
  0.00000000E+00  0.00000000E+00  0.00000000E+00
  0.00000000E+00  0.00000000E+00  0.00000000E+00
  0.00000000E+00  0.00000000E+00  0.00000000E+00
  0.00000000E+00  0.00000000E+00  0.00000000E+00
  0.00000000E+00  0.00000000E+00  0.00000000E+00
  0.00000000E+00  0.00000000E+00  0.00000000E+00
  0.00000000E+00  0.00000000E+00  0.00000000E+00
  0.00000000E+00  0.00000000E+00  0.00000000E+00
  0.00000000E+00  0.00000000E+00  0.00000000E+00
