2 Te4                                   
   1.00000000000000     
     8.6163749187280114    0.0946206094018907    0.0049576364899534
    -2.1131230202853835    3.6600442197979870    0.0000066574845520
     0.0203645730258814    0.0118380326405035   41.9329481234811325
   Mn   Rh   Sb   Te
     1     1     4     8
Direct
  0.3333330000000032  0.3333330000000032  0.3333330000000032
  0.8333330000000032  0.3333330000000032  0.3333330000000032
  0.9905147968322788  0.9905152298899420  0.4190878367163786
  0.4916061234172084  0.9916071265010317  0.4175244559129719
  0.1750608765827885  0.6750598734989651  0.2491425440870320
  0.6761522031677180  0.6761517701100548  0.2475791632836253
  0.3410260901129050  0.3410253627026327  0.4577404192847738
  0.8308771935792902  0.3308770849477880  0.4593458065932536
  0.3256399098871015  0.3256406372973737  0.2089255807152255
  0.8357888064207162  0.3357889150522184  0.2073201934067457
  0.9750767855486067  0.9750772867353962  0.3005355148322851
  0.5020441812581488  0.0020421712729834  0.2964011853501353
  0.1646228187418480  0.6646248287270135  0.3702658146498686
  0.6915902144513901  0.6915897132646006  0.3661314851677188
 
  0.00000000E+00  0.00000000E+00  0.00000000E+00
  0.00000000E+00  0.00000000E+00  0.00000000E+00
  0.00000000E+00  0.00000000E+00  0.00000000E+00
  0.00000000E+00  0.00000000E+00  0.00000000E+00
  0.00000000E+00  0.00000000E+00  0.00000000E+00
  0.00000000E+00  0.00000000E+00  0.00000000E+00
  0.00000000E+00  0.00000000E+00  0.00000000E+00
  0.00000000E+00  0.00000000E+00  0.00000000E+00
  0.00000000E+00  0.00000000E+00  0.00000000E+00
  0.00000000E+00  0.00000000E+00  0.00000000E+00
  0.00000000E+00  0.00000000E+00  0.00000000E+00
  0.00000000E+00  0.00000000E+00  0.00000000E+00
  0.00000000E+00  0.00000000E+00  0.00000000E+00
  0.00000000E+00  0.00000000E+00  0.00000000E+00
