2 Te4                                   
   1.00000000000000     
     7.5416391223169628   -0.0245497326558526   -0.0149066420123907
    -1.8960354803719304    3.2863597538790259   -0.0003583126929463
     0.2792961275711615    0.1555986598679975   53.7948215424072842
   Mn   Cu   Sn   S 
     1     1     4     8
Direct
  0.3333330000000032  0.3333330000000032  0.3333330000000032
  0.8333330000000032  0.3333330000000032  0.3333330000000032
  0.9949111194099336  0.9950013770847604  0.3940231639014164
  0.4972285713801505  0.9969031601112466  0.3916286535109987
  0.1694384286198464  0.6697638398887502  0.2750383464890052
  0.6717558805900632  0.6716656229152363  0.2726438360985875
  0.3366415815761672  0.3359762748575095  0.4189313727366828
  0.8208839139775600  0.3213986174498933  0.4198260873072682
  0.3300244184238392  0.3306897251424969  0.2477346272633166
  0.8457820860224464  0.3452673825501131  0.2468399126927310
  0.0019840142284207  0.0025381609853084  0.3072283674704210
  0.5057218259798044  0.0041963714722618  0.3073717102343241
  0.1609451740201921  0.6624706285277351  0.3592952897656798
  0.6646829857715831  0.6641288390146884  0.3594386325295829
 
  0.00000000E+00  0.00000000E+00  0.00000000E+00
  0.00000000E+00  0.00000000E+00  0.00000000E+00
  0.00000000E+00  0.00000000E+00  0.00000000E+00
  0.00000000E+00  0.00000000E+00  0.00000000E+00
  0.00000000E+00  0.00000000E+00  0.00000000E+00
  0.00000000E+00  0.00000000E+00  0.00000000E+00
  0.00000000E+00  0.00000000E+00  0.00000000E+00
  0.00000000E+00  0.00000000E+00  0.00000000E+00
  0.00000000E+00  0.00000000E+00  0.00000000E+00
  0.00000000E+00  0.00000000E+00  0.00000000E+00
  0.00000000E+00  0.00000000E+00  0.00000000E+00
  0.00000000E+00  0.00000000E+00  0.00000000E+00
  0.00000000E+00  0.00000000E+00  0.00000000E+00
  0.00000000E+00  0.00000000E+00  0.00000000E+00
