2 Te4                                   
   1.00000000000000     
     7.9601316772712396   -0.0291730406681836    0.0089121353918818
    -2.0026654058803923    3.4687289807049773    0.0000266987355294
     0.0908928914820228    0.0528232104287266   48.2993704956005701
   Mn   Y    Pb   S 
     1     1     4     8
Direct
  0.3333330000000032  0.3333330000000032  0.3333330000000032
  0.8333330000000032  0.3333330000000032  0.3333330000000032
  0.0038340769252156  0.0038617388723401  0.4071874034430685
  0.4962861395160047  0.9962510487977121  0.4102015504952693
  0.1703808604839921  0.6704159512022847  0.2564654495047346
  0.6628329230747813  0.6628052611276567  0.2594795965569354
  0.3258180947387107  0.3257620021993608  0.4396238535748255
  0.8405205837366870  0.3405595677296673  0.4378058143018550
  0.3408479052612958  0.3409039978006456  0.2270421464251738
  0.8261454162633194  0.3261064322703391  0.2288601856981516
  0.0154618156810149  0.0154634901748172  0.3025976634475813
  0.4841863220595778  0.9842300166642463  0.3037302631850887
  0.1824806779404190  0.6824369833357505  0.3629367368149152
  0.6512051843189821  0.6512035098251796  0.3640693365524226
 
  0.00000000E+00  0.00000000E+00  0.00000000E+00
  0.00000000E+00  0.00000000E+00  0.00000000E+00
  0.00000000E+00  0.00000000E+00  0.00000000E+00
  0.00000000E+00  0.00000000E+00  0.00000000E+00
  0.00000000E+00  0.00000000E+00  0.00000000E+00
  0.00000000E+00  0.00000000E+00  0.00000000E+00
  0.00000000E+00  0.00000000E+00  0.00000000E+00
  0.00000000E+00  0.00000000E+00  0.00000000E+00
  0.00000000E+00  0.00000000E+00  0.00000000E+00
  0.00000000E+00  0.00000000E+00  0.00000000E+00
  0.00000000E+00  0.00000000E+00  0.00000000E+00
  0.00000000E+00  0.00000000E+00  0.00000000E+00
  0.00000000E+00  0.00000000E+00  0.00000000E+00
  0.00000000E+00  0.00000000E+00  0.00000000E+00
