2 Te4                                   
   1.00000000000000     
     8.0569681202597110   -0.0527806049415557   -0.0194837525610975
    -2.0370986077574855    3.5281535532530883    0.0001200345543051
    -0.0827781949925253   -0.0461934944394497   46.9937457316763272
   Mn   Cr   Sb   Se
     1     1     4     8
Direct
  0.3333330000000032  0.3333330000000032  0.3333330000000032
  0.8333330000000032  0.3333330000000032  0.3333330000000032
  0.0013920296024160  0.0013922100577545  0.4064656829213446
  0.5034436139345156  0.0034346876299077  0.4068339967973637
  0.1632233860654811  0.6632323123700892  0.2598330032026402
  0.6652749703975808  0.6652747899422423  0.2602013170786593
  0.3314877134201710  0.3314942512302257  0.4396415622607177
  0.8301033969170878  0.3301046023831584  0.4393338181763682
  0.3351782865798354  0.3351717487697807  0.2270244377392817
  0.8365626030829186  0.3365613976168480  0.2273321818236312
  0.0052519599886825  0.0052320612784434  0.3012564211166921
  0.5127644173936746  0.0127638809865792  0.3026478670728588
  0.1539025826063221  0.6539031190134176  0.3640191329271451
  0.6614150400113143  0.6614349387215533  0.3654105788833118
 
  0.00000000E+00  0.00000000E+00  0.00000000E+00
  0.00000000E+00  0.00000000E+00  0.00000000E+00
  0.00000000E+00  0.00000000E+00  0.00000000E+00
  0.00000000E+00  0.00000000E+00  0.00000000E+00
  0.00000000E+00  0.00000000E+00  0.00000000E+00
  0.00000000E+00  0.00000000E+00  0.00000000E+00
  0.00000000E+00  0.00000000E+00  0.00000000E+00
  0.00000000E+00  0.00000000E+00  0.00000000E+00
  0.00000000E+00  0.00000000E+00  0.00000000E+00
  0.00000000E+00  0.00000000E+00  0.00000000E+00
  0.00000000E+00  0.00000000E+00  0.00000000E+00
  0.00000000E+00  0.00000000E+00  0.00000000E+00
  0.00000000E+00  0.00000000E+00  0.00000000E+00
  0.00000000E+00  0.00000000E+00  0.00000000E+00
