2 Te4                                   
   1.00000000000000     
     8.6225168204964806   -0.0067745546128951   -0.0010390322920964
    -2.1585636146472935    3.7387343785223695    0.0000034495684248
    -0.0048254395286123   -0.0027541461293024   41.2999332589611257
   Mn   Sb   Te
     2     4     8
Direct
  0.3333330000000032  0.3333330000000032  0.3333330000000032
  0.8333330000000032  0.3333330000000032  0.3333330000000032
  0.9999046939121803  0.9999046752298789  0.4227105407023942
  0.4999046939121802  0.9999046752298789  0.4227105407023942
  0.1667623060878165  0.6667623247701179  0.2439564592976096
  0.6667623060878165  0.6667623247701179  0.2439564592976096
  0.3330337324445893  0.3330330948628515  0.4635891208542836
  0.8330337324445893  0.3330330948628515  0.4635891208542836
  0.3336322675554171  0.3336329051371549  0.2030768791457157
  0.8336322675554171  0.3336329051371549  0.2030768791457157
  0.9997482811386946  0.9997461152284847  0.2943986944386657
  0.4997482811386947  0.9997461152284847  0.2943986944386657
  0.1669187188613021  0.6669208847715121  0.3722683055613382
  0.6669187188613022  0.6669208847715121  0.3722683055613382
 
  0.00000000E+00  0.00000000E+00  0.00000000E+00
  0.00000000E+00  0.00000000E+00  0.00000000E+00
  0.00000000E+00  0.00000000E+00  0.00000000E+00
  0.00000000E+00  0.00000000E+00  0.00000000E+00
  0.00000000E+00  0.00000000E+00  0.00000000E+00
  0.00000000E+00  0.00000000E+00  0.00000000E+00
  0.00000000E+00  0.00000000E+00  0.00000000E+00
  0.00000000E+00  0.00000000E+00  0.00000000E+00
  0.00000000E+00  0.00000000E+00  0.00000000E+00
  0.00000000E+00  0.00000000E+00  0.00000000E+00
  0.00000000E+00  0.00000000E+00  0.00000000E+00
  0.00000000E+00  0.00000000E+00  0.00000000E+00
  0.00000000E+00  0.00000000E+00  0.00000000E+00
  0.00000000E+00  0.00000000E+00  0.00000000E+00
