2 Te4                                   
   1.00000000000000     
     7.9294567211056446    0.0051097329197947   -0.0067838447780309
    -1.9801524929917012    3.4296350639881905    0.0000065106491889
    -0.0807340889378004   -0.0465189981111646   48.9168945106296746
   Mn   Pd   Sn   Se
     1     1     4     8
Direct
  0.3333330000000032  0.3333330000000032  0.3333330000000032
  0.8333330000000032  0.3333330000000032  0.3333330000000032
  0.9985087729204873  0.9985071353672819  0.4040255527565080
  0.4992360312969324  0.9992356848025804  0.4030391710739861
  0.1674309687030644  0.6674313151974164  0.2636278289260178
  0.6681582270795094  0.6681598646327149  0.2626414472434959
  0.3365333381575646  0.3365327606756432  0.4344111914932711
  0.8300639604755222  0.3300640245940119  0.4350622464120855
  0.3301326618424418  0.3301332393243632  0.2322548085067282
  0.8366020395244842  0.3366019754059946  0.2316037535879138
  0.9869334229263028  0.9869346413261132  0.3065844927426391
  0.5109168548141281  0.0109146770287747  0.3039778786723250
  0.1557501451858686  0.6557523229712221  0.3626891213276789
  0.6797335770736940  0.6797323586738836  0.3600825072573648
 
  0.00000000E+00  0.00000000E+00  0.00000000E+00
  0.00000000E+00  0.00000000E+00  0.00000000E+00
  0.00000000E+00  0.00000000E+00  0.00000000E+00
  0.00000000E+00  0.00000000E+00  0.00000000E+00
  0.00000000E+00  0.00000000E+00  0.00000000E+00
  0.00000000E+00  0.00000000E+00  0.00000000E+00
  0.00000000E+00  0.00000000E+00  0.00000000E+00
  0.00000000E+00  0.00000000E+00  0.00000000E+00
  0.00000000E+00  0.00000000E+00  0.00000000E+00
  0.00000000E+00  0.00000000E+00  0.00000000E+00
  0.00000000E+00  0.00000000E+00  0.00000000E+00
  0.00000000E+00  0.00000000E+00  0.00000000E+00
  0.00000000E+00  0.00000000E+00  0.00000000E+00
  0.00000000E+00  0.00000000E+00  0.00000000E+00
