2 Te4                                   
   1.00000000000000     
     7.9956759363797802    0.0105438092177149    0.0022483698767646
    -1.9943533405370704    3.4537234508974821   -0.0004183348536917
     0.0046681125118740   -0.0031210758551561   48.1545849788105755
   Mn   Zr   Sn   Se
     1     1     4     8
Direct
  0.3333330000000032  0.3333330000000032  0.3333330000000032
  0.8333330000000032  0.3333330000000032  0.3333330000000032
  0.0037890335015302  0.0037691788572040  0.4128718638721356
  0.4963841715091697  0.9963915955375475  0.4153307814408402
  0.1702828284908271  0.6702754044624493  0.2513362185591637
  0.6628779664984666  0.6628978211427927  0.2537951361278682
  0.3283125054598318  0.3282611073857050  0.4464145937403123
  0.8384382442868824  0.3384235071487144  0.4445839259948248
  0.3383534945401747  0.3384048926143014  0.2202514062596870
  0.8282277557131240  0.3282424928512920  0.2220820740051744
  0.9911806432701407  0.9911262233091385  0.3009381456761265
  0.5026426244740410  0.0022166313048945  0.3021801702796231
  0.1640243755259560  0.6644503686951022  0.3644868297203808
  0.6754863567298561  0.6755407766908583  0.3657288543238774
 
  0.00000000E+00  0.00000000E+00  0.00000000E+00
  0.00000000E+00  0.00000000E+00  0.00000000E+00
  0.00000000E+00  0.00000000E+00  0.00000000E+00
  0.00000000E+00  0.00000000E+00  0.00000000E+00
  0.00000000E+00  0.00000000E+00  0.00000000E+00
  0.00000000E+00  0.00000000E+00  0.00000000E+00
  0.00000000E+00  0.00000000E+00  0.00000000E+00
  0.00000000E+00  0.00000000E+00  0.00000000E+00
  0.00000000E+00  0.00000000E+00  0.00000000E+00
  0.00000000E+00  0.00000000E+00  0.00000000E+00
  0.00000000E+00  0.00000000E+00  0.00000000E+00
  0.00000000E+00  0.00000000E+00  0.00000000E+00
  0.00000000E+00  0.00000000E+00  0.00000000E+00
  0.00000000E+00  0.00000000E+00  0.00000000E+00
