2 Te4                                   
   1.00000000000000     
     8.3152433943900554    0.1818354023095194    0.0911646718828452
    -2.0000720405477401    3.4640849183513041    0.0000630436621779
     0.4864792821373191    0.2817406293468832   45.6315681550340742
   Mn   Cu   Bi   Se
     1     1     4     8
Direct
  0.3333330000000032  0.3333330000000032  0.3333330000000032
  0.8333330000000032  0.3333330000000032  0.3333330000000032
  0.9960963130615489  0.9960914839998941  0.4100222786145261
  0.4980927827485686 -0.0019123197921744  0.4071433641671670
  0.1685742172514282  0.6685793197921711  0.2595236358328369
  0.6705706869384479  0.6705755160001027  0.2566447213854778
  0.3321391656794828  0.3321439069170334  0.4429701501396163
  0.8293630113196488  0.3293645676706105  0.4447998569846692
  0.3345268343205237  0.3345220930829730  0.2236958498603831
  0.8373029886803576  0.3373014323293959  0.2218661430153299
  0.9747425885661249  0.9747365719158275  0.3053901719126794
  0.4762127459436812  0.9762169941688342  0.3003091264130618
  0.1904542540563156  0.6904500058311626  0.3663578735869421
  0.6919244114338718  0.6919304280841693  0.3612768280873245
 
  0.00000000E+00  0.00000000E+00  0.00000000E+00
  0.00000000E+00  0.00000000E+00  0.00000000E+00
  0.00000000E+00  0.00000000E+00  0.00000000E+00
  0.00000000E+00  0.00000000E+00  0.00000000E+00
  0.00000000E+00  0.00000000E+00  0.00000000E+00
  0.00000000E+00  0.00000000E+00  0.00000000E+00
  0.00000000E+00  0.00000000E+00  0.00000000E+00
  0.00000000E+00  0.00000000E+00  0.00000000E+00
  0.00000000E+00  0.00000000E+00  0.00000000E+00
  0.00000000E+00  0.00000000E+00  0.00000000E+00
  0.00000000E+00  0.00000000E+00  0.00000000E+00
  0.00000000E+00  0.00000000E+00  0.00000000E+00
  0.00000000E+00  0.00000000E+00  0.00000000E+00
  0.00000000E+00  0.00000000E+00  0.00000000E+00
