2 Te4                                   
   1.00000000000000     
     7.8494038410309956   -0.0157127265080573   -0.0115772738835547
    -1.9691546439316610    3.4108595496241740    0.0003108904303116
    -0.0326759380679141   -0.0142791541275646   49.7637557794364938
   Mn   Sc   Pb   S 
     1     1     4     8
Direct
  0.3333330000000032  0.3333330000000032  0.3333330000000032
  0.8333330000000032  0.3333330000000032  0.3333330000000032
  0.0007488356989450  0.0007151019237579  0.4043412692444081
  0.4959049172650598  0.9960909943351575  0.4064586854327341
  0.1707620827349370  0.6705760056648393  0.2602083145672698
  0.6659181643010518  0.6659518980762390  0.2623257307555958
  0.3263352816295905  0.3265131096254868  0.4357716500599779
  0.8391960839846956  0.3390002045315172  0.4344970029970572
  0.3403307183704159  0.3401528903745196  0.2308943499400215
  0.8274699160153108  0.3276657954684892  0.2321689970029422
  0.9991236070703011  0.9992004257062840  0.3054249702677778
  0.4998321738089755  0.0000684482304713  0.3055623285291471
  0.1668348261910213  0.6665985517695254  0.3611046714708568
  0.6675433929296957  0.6674665742937128  0.3612420297322261
 
  0.00000000E+00  0.00000000E+00  0.00000000E+00
  0.00000000E+00  0.00000000E+00  0.00000000E+00
  0.00000000E+00  0.00000000E+00  0.00000000E+00
  0.00000000E+00  0.00000000E+00  0.00000000E+00
  0.00000000E+00  0.00000000E+00  0.00000000E+00
  0.00000000E+00  0.00000000E+00  0.00000000E+00
  0.00000000E+00  0.00000000E+00  0.00000000E+00
  0.00000000E+00  0.00000000E+00  0.00000000E+00
  0.00000000E+00  0.00000000E+00  0.00000000E+00
  0.00000000E+00  0.00000000E+00  0.00000000E+00
  0.00000000E+00  0.00000000E+00  0.00000000E+00
  0.00000000E+00  0.00000000E+00  0.00000000E+00
  0.00000000E+00  0.00000000E+00  0.00000000E+00
  0.00000000E+00  0.00000000E+00  0.00000000E+00
