2 Te4                                   
   1.00000000000000     
     7.9950834665443926   -0.0213078435874011   -0.0111184560628224
    -2.0079987472187026    3.4777548930576314    0.0000939883162428
    -0.0142172530290116   -0.0069173554223144   47.9355834067765301
   Mn   Sc   Sn   Se
     1     1     4     8
Direct
  0.3333330000000032  0.3333330000000032  0.3333330000000032
  0.8333330000000032  0.3333330000000032  0.3333330000000032
  0.0000273784704554  0.0000347042301893  0.4091599537137594
  0.4960182790971226  0.9960247201554977  0.4117773424766791
  0.1706487209028742  0.6706422798444991  0.2548896575233248
  0.6666396215295414  0.6666322957698075  0.2575070462862445
  0.3249288643106221  0.3249445778360634  0.4427251964119038
  0.8401996180209911  0.3401871498711752  0.4413096482958424
  0.3417371356893843  0.3417214221639430  0.2239408035880955
  0.8264663819790153  0.3264788501288312  0.2253563517041569
  0.9968481310604578  0.9968677795311847  0.3012769634006165
  0.4999544703410722  0.9999529680855275  0.3014104354656473
  0.1667125296589246  0.6667140319144693  0.3652565645343566
  0.6698188689395390  0.6697992204688121  0.3653900365993873
 
  0.00000000E+00  0.00000000E+00  0.00000000E+00
  0.00000000E+00  0.00000000E+00  0.00000000E+00
  0.00000000E+00  0.00000000E+00  0.00000000E+00
  0.00000000E+00  0.00000000E+00  0.00000000E+00
  0.00000000E+00  0.00000000E+00  0.00000000E+00
  0.00000000E+00  0.00000000E+00  0.00000000E+00
  0.00000000E+00  0.00000000E+00  0.00000000E+00
  0.00000000E+00  0.00000000E+00  0.00000000E+00
  0.00000000E+00  0.00000000E+00  0.00000000E+00
  0.00000000E+00  0.00000000E+00  0.00000000E+00
  0.00000000E+00  0.00000000E+00  0.00000000E+00
  0.00000000E+00  0.00000000E+00  0.00000000E+00
  0.00000000E+00  0.00000000E+00  0.00000000E+00
  0.00000000E+00  0.00000000E+00  0.00000000E+00
