2 Te4                                   
   1.00000000000000     
     8.4435942888240803   -0.0271844608518347    0.0034585968930740
    -2.1226754140828508    3.6749028041428868    0.0001817113713794
     0.0140150582813724    0.0098261143046949   42.9681065080749036
   Mn   Fe   Sn   Te
     1     1     4     8
Direct
  0.3333330000000032  0.3333330000000032  0.3333330000000032
  0.8333330000000032  0.3333330000000032  0.3333330000000032
  0.9983096688157224  0.9984555239006261  0.4214135740663928
  0.4996614915173928  0.9997773553837824  0.4204913064415741
  0.1670055084826040  0.6668896446162144  0.2461756935584298
  0.6683573311842744  0.6682114760993707  0.2452534259336111
  0.3359178237660046  0.3358578864771285  0.4595024151238471
  0.8310819188019829  0.3310379852707991  0.4602339767528995
  0.3307481762340018  0.3308081135228779  0.2071635848761522
  0.8355840811980235  0.3356280147292073  0.2064320232470999
  0.9926980183588983  0.9927765537353465  0.2978762957305021
  0.5048868609573394  0.0050779854854402  0.2966759834172398
  0.1617801390426576  0.6615890145145567  0.3699910165827641
  0.6739689816410985  0.6738904462646503  0.3687907042695018
 
  0.00000000E+00  0.00000000E+00  0.00000000E+00
  0.00000000E+00  0.00000000E+00  0.00000000E+00
  0.00000000E+00  0.00000000E+00  0.00000000E+00
  0.00000000E+00  0.00000000E+00  0.00000000E+00
  0.00000000E+00  0.00000000E+00  0.00000000E+00
  0.00000000E+00  0.00000000E+00  0.00000000E+00
  0.00000000E+00  0.00000000E+00  0.00000000E+00
  0.00000000E+00  0.00000000E+00  0.00000000E+00
  0.00000000E+00  0.00000000E+00  0.00000000E+00
  0.00000000E+00  0.00000000E+00  0.00000000E+00
  0.00000000E+00  0.00000000E+00  0.00000000E+00
  0.00000000E+00  0.00000000E+00  0.00000000E+00
  0.00000000E+00  0.00000000E+00  0.00000000E+00
  0.00000000E+00  0.00000000E+00  0.00000000E+00
