2 Te4                                   
   1.00000000000000     
     7.5856346705757147   -0.0156080425736592    0.0134095862101416
    -1.9032431834487393    3.2961539329170968   -0.0027975085862127
     0.0954910347151579    0.0997665098761316   53.2879906798547012
   Mn   Fe   Sn   S 
     1     1     4     8
Direct
  0.3333330000000032  0.3333330000000032  0.3333330000000032
  0.8333330000000032  0.3333330000000032  0.3333330000000032
  0.9949359573614029  0.9949679311467403  0.3954171316240616
  0.4946652665641470  0.9947358484739647  0.3956329066701886
  0.1720017334358498  0.6719311515260321  0.2710340933298153
  0.6717310426385938  0.6716990688532565  0.2712498683759423
  0.3229093207215565  0.3229884416079805  0.4223151153739701
  0.8329891628473937  0.3330489368251001  0.4220623938406026
  0.3437566792784499  0.3436775583920259  0.2443508846260292
  0.8336768371526128  0.3336170631749064  0.2446036061593969
  0.9905386675561585  0.9904609451257685  0.3076064665573824
  0.5113145935330813  0.0113272437774444  0.3067437071846588
  0.1553524064669157  0.6553397562225525  0.3599232928153451
  0.6761283324438383  0.6762060548742282  0.3590605334426215
 
  0.00000000E+00  0.00000000E+00  0.00000000E+00
  0.00000000E+00  0.00000000E+00  0.00000000E+00
  0.00000000E+00  0.00000000E+00  0.00000000E+00
  0.00000000E+00  0.00000000E+00  0.00000000E+00
  0.00000000E+00  0.00000000E+00  0.00000000E+00
  0.00000000E+00  0.00000000E+00  0.00000000E+00
  0.00000000E+00  0.00000000E+00  0.00000000E+00
  0.00000000E+00  0.00000000E+00  0.00000000E+00
  0.00000000E+00  0.00000000E+00  0.00000000E+00
  0.00000000E+00  0.00000000E+00  0.00000000E+00
  0.00000000E+00  0.00000000E+00  0.00000000E+00
  0.00000000E+00  0.00000000E+00  0.00000000E+00
  0.00000000E+00  0.00000000E+00  0.00000000E+00
  0.00000000E+00  0.00000000E+00  0.00000000E+00
