2 Te4                                   
   1.00000000000000     
     8.8049146634813873    0.0062340207031074   -0.0063805385238520
    -2.1985296662796880    3.8078770592852909   -0.0000532860846498
    -0.0258969793031868   -0.0155323242269486   39.6757979492864550
   Mn   Ti   Bi   Te
     1     1     4     8
Direct
  0.3333330000000032  0.3333330000000032  0.3333330000000032
  0.8333330000000032  0.3333330000000032  0.3333330000000032
  0.9995057912967853  0.9995896200023270  0.4267469539139619
  0.5004304406995012  0.0004922204239315  0.4286625402302827
  0.1662365593004954  0.6661747795760652  0.2380044597697212
  0.6671612087032115  0.6670773799976698  0.2399200460860420
  0.3320120558436088  0.3320584025259866  0.4714440303561568
  0.8349092595533182  0.3349563333854776  0.4710432755155771
  0.3346539441563977  0.3346075974740198  0.1952219696438427
  0.8317567404466882  0.3317096666145288  0.1956227244844222
  0.0028842718275874  0.0028915662102151  0.2932095849813625
  0.4974842343532856  0.9975056885708866  0.2935483567209207
  0.1691827656467111  0.6691613114291102  0.3731186432790832
  0.6637827281724095  0.6637754337897814  0.3734574150186414
 
  0.00000000E+00  0.00000000E+00  0.00000000E+00
  0.00000000E+00  0.00000000E+00  0.00000000E+00
  0.00000000E+00  0.00000000E+00  0.00000000E+00
  0.00000000E+00  0.00000000E+00  0.00000000E+00
  0.00000000E+00  0.00000000E+00  0.00000000E+00
  0.00000000E+00  0.00000000E+00  0.00000000E+00
  0.00000000E+00  0.00000000E+00  0.00000000E+00
  0.00000000E+00  0.00000000E+00  0.00000000E+00
  0.00000000E+00  0.00000000E+00  0.00000000E+00
  0.00000000E+00  0.00000000E+00  0.00000000E+00
  0.00000000E+00  0.00000000E+00  0.00000000E+00
  0.00000000E+00  0.00000000E+00  0.00000000E+00
  0.00000000E+00  0.00000000E+00  0.00000000E+00
  0.00000000E+00  0.00000000E+00  0.00000000E+00
