2 Te4                                   
   1.00000000000000     
     8.7024002581058930   -0.0094872604962399    0.0107133418226612
    -2.1796808845701534    3.7743768645596716    0.0003156455333385
     0.0547266727430097    0.0351928621563779   40.5416267391746672
   Mn   Co   Bi   Te
     1     1     4     8
Direct
  0.3333330000000032  0.3333330000000032  0.3333330000000032
  0.8333330000000032  0.3333330000000032  0.3333330000000032
  0.9983931819334851  0.9983171004484990  0.4249053639886868
  0.5016402058667653  0.0014971168234636  0.4237703028024471
  0.1650267941332317  0.6651698831765330  0.2428966971975567
  0.6682738180665116  0.6683498995514978  0.2417616360113171
  0.3366125492895335  0.3367280205307738  0.4670770943691888
  0.8297734830565382  0.3297604516006956  0.4679863853853661
  0.3300534507104658  0.3299379794692326  0.1995889056308106
  0.8368925169434682  0.3369055483993109  0.1986796146146333
  0.9883380518389507  0.9882004063353375  0.2968546130007155
  0.5080950012884347  0.0080343049230118  0.2955443763334455
  0.1585719987115622  0.6586326950769850  0.3711226236665583
  0.6783289481610461  0.6784665936646593  0.3698123869992884
 
  0.00000000E+00  0.00000000E+00  0.00000000E+00
  0.00000000E+00  0.00000000E+00  0.00000000E+00
  0.00000000E+00  0.00000000E+00  0.00000000E+00
  0.00000000E+00  0.00000000E+00  0.00000000E+00
  0.00000000E+00  0.00000000E+00  0.00000000E+00
  0.00000000E+00  0.00000000E+00  0.00000000E+00
  0.00000000E+00  0.00000000E+00  0.00000000E+00
  0.00000000E+00  0.00000000E+00  0.00000000E+00
  0.00000000E+00  0.00000000E+00  0.00000000E+00
  0.00000000E+00  0.00000000E+00  0.00000000E+00
  0.00000000E+00  0.00000000E+00  0.00000000E+00
  0.00000000E+00  0.00000000E+00  0.00000000E+00
  0.00000000E+00  0.00000000E+00  0.00000000E+00
  0.00000000E+00  0.00000000E+00  0.00000000E+00
