2 Te4                                   
   1.00000000000000     
     8.2676939033357204   -0.1122779015257307   -0.0071276873215390
    -2.1157502277405675    3.5713570839978201    0.0077941602880958
    -0.0609479408053425    0.0702160044630955   45.4363108567444698
   Mn   Rh   Bi   Se
     1     1     4     8
Direct
  0.3333330000000032  0.3333330000000032  0.3333330000000032
  0.8333330000000032  0.3333330000000032  0.3333330000000032
  0.0010943582171004 -0.0012101850940843  0.4084114023977912
  0.5060485508286660 -0.0116823697343583  0.4082141721005679
  0.1606184491713307  0.6783493697343551  0.2584528278994360
  0.6655726417828969  0.6678771850940809  0.2582555976022127
  0.3355728556648947  0.3443564471935077  0.4432828776109116
  0.8296510534900504  0.3240334216572964  0.4436700006601013
  0.3310931443351117  0.3223095528064987  0.2233831223890876
  0.8370149465099560  0.3426325783427100  0.2229959993398982
  0.9942549686029469  0.9546684443250683  0.3039148706760232
  0.5212499213500438  0.0177679313774502  0.3037731159011011
  0.1454170786499530  0.6488990686225469  0.3628938840989028
  0.6724120313970499  0.7119985556749285  0.3627521293239807
 
  0.00000000E+00  0.00000000E+00  0.00000000E+00
  0.00000000E+00  0.00000000E+00  0.00000000E+00
  0.00000000E+00  0.00000000E+00  0.00000000E+00
  0.00000000E+00  0.00000000E+00  0.00000000E+00
  0.00000000E+00  0.00000000E+00  0.00000000E+00
  0.00000000E+00  0.00000000E+00  0.00000000E+00
  0.00000000E+00  0.00000000E+00  0.00000000E+00
  0.00000000E+00  0.00000000E+00  0.00000000E+00
  0.00000000E+00  0.00000000E+00  0.00000000E+00
  0.00000000E+00  0.00000000E+00  0.00000000E+00
  0.00000000E+00  0.00000000E+00  0.00000000E+00
  0.00000000E+00  0.00000000E+00  0.00000000E+00
  0.00000000E+00  0.00000000E+00  0.00000000E+00
  0.00000000E+00  0.00000000E+00  0.00000000E+00
