2 Te4                                   
   1.00000000000000     
     7.5677093932540851   -0.0000698741079686   -0.1067343966990592
    -1.8919582776512112    3.2769335020858130    0.0000192662819956
    -0.1541781797427178   -0.0886212248099779   53.6666677736229119
   Mn   Ni   Sn   S 
     1     1     4     8
Direct
  0.3333330000000032  0.3333330000000032  0.3333330000000032
  0.8333330000000032  0.3333330000000032  0.3333330000000032
  0.0010271437088667  0.0010306511431394  0.3933969384703340
  0.5032462109289575  0.0032503056574679  0.3929347731812433
  0.1634207890710391  0.6634166943425288  0.2737322268187606
  0.6656398562911300  0.6656363488568574  0.2732700615296699
  0.3340296735553059  0.3340279468060033  0.4196501884153960
  0.8447940056347980  0.3447923927189553  0.4198298528101914
  0.3326363264447005  0.3326380531940031  0.2470158115846035
  0.8218719943652084  0.3218736072810511  0.2468361471898080
  0.9791145977676471  0.9791122459639476  0.3096333051981526
  0.5213881795307428  0.0213820418233482  0.3080059381850789
  0.1452788204692540  0.6452849581766487  0.3586610618149250
  0.6875524022323497  0.6875547540360492  0.3570336948018513
 
  0.00000000E+00  0.00000000E+00  0.00000000E+00
  0.00000000E+00  0.00000000E+00  0.00000000E+00
  0.00000000E+00  0.00000000E+00  0.00000000E+00
  0.00000000E+00  0.00000000E+00  0.00000000E+00
  0.00000000E+00  0.00000000E+00  0.00000000E+00
  0.00000000E+00  0.00000000E+00  0.00000000E+00
  0.00000000E+00  0.00000000E+00  0.00000000E+00
  0.00000000E+00  0.00000000E+00  0.00000000E+00
  0.00000000E+00  0.00000000E+00  0.00000000E+00
  0.00000000E+00  0.00000000E+00  0.00000000E+00
  0.00000000E+00  0.00000000E+00  0.00000000E+00
  0.00000000E+00  0.00000000E+00  0.00000000E+00
  0.00000000E+00  0.00000000E+00  0.00000000E+00
  0.00000000E+00  0.00000000E+00  0.00000000E+00
