2 Te4                                   
   1.00000000000000     
     8.4324322852577733   -0.0117395569435141    0.0025332369926205
    -2.1131933372633314    3.6602066189428188    0.0004698543948289
    -0.0040279021119812    0.0013604480946222   43.1520763733217763
   Mn   Pd   Sn   Te
     1     1     4     8
Direct
  0.3333330000000032  0.3333330000000032  0.3333330000000032
  0.8333330000000032  0.3333330000000032  0.3333330000000032
  0.9977019859469207  0.9978395375105671  0.4194559886477206
  0.5008275756644782  0.0009247140171410  0.4187518005848291
  0.1658394243355184  0.6657422859828558  0.2479151994151747
  0.6689650140530761  0.6688274624894297  0.2472110113522833
  0.3360603168396077  0.3360323805104052  0.4572999094211992
  0.8308590855977566  0.3307700858035985  0.4584834201689350
  0.3306056831603987  0.3306336194896012  0.2093660905788001
  0.8358069144022499  0.3358959141964080  0.2081825798310643
  0.9849586234253475  0.9849786970675062  0.3013426886123116
  0.5121751067873471  0.0124262818541204  0.2981537003260902
  0.1544918932126498  0.6542407181458763  0.3685132996739137
  0.6817083765746493  0.6816883029324906  0.3653243113876923
 
  0.00000000E+00  0.00000000E+00  0.00000000E+00
  0.00000000E+00  0.00000000E+00  0.00000000E+00
  0.00000000E+00  0.00000000E+00  0.00000000E+00
  0.00000000E+00  0.00000000E+00  0.00000000E+00
  0.00000000E+00  0.00000000E+00  0.00000000E+00
  0.00000000E+00  0.00000000E+00  0.00000000E+00
  0.00000000E+00  0.00000000E+00  0.00000000E+00
  0.00000000E+00  0.00000000E+00  0.00000000E+00
  0.00000000E+00  0.00000000E+00  0.00000000E+00
  0.00000000E+00  0.00000000E+00  0.00000000E+00
  0.00000000E+00  0.00000000E+00  0.00000000E+00
  0.00000000E+00  0.00000000E+00  0.00000000E+00
  0.00000000E+00  0.00000000E+00  0.00000000E+00
  0.00000000E+00  0.00000000E+00  0.00000000E+00
