2 Te4                                   
   1.00000000000000     
     7.9054449565834357    0.0021229153852686    0.0000208368319704
    -1.9754458586626038    3.4217164084675233    0.0001182536606159
    -0.2022739227172826   -0.1150643482150530   49.1895962953108210
   Mn   Co   Bi   S 
     1     1     4     8
Direct
  0.3333330000000032  0.3333330000000032  0.3333330000000032
  0.8333330000000032  0.3333330000000032  0.3333330000000032
 -0.0000847867927203  0.0000238249354073  0.4002134199664020
  0.5033053806894788  0.0034853735761981  0.4002862855217854
  0.1633616193105178  0.6631816264237984  0.2663807144782185
  0.6667517867927171  0.6666431750645895  0.2664535800336019
  0.3397222166177293  0.3397819001140441  0.4303688681931903
  0.8326971981924775  0.3327316364630452  0.4307163308840261
  0.3269437833822771  0.3268840998859623  0.2362971318068090
  0.8339688018075290  0.3339343635369612  0.2359496691159733
  0.9903620869473763  0.9903751830157489  0.3069309516855251
  0.5080006530183244  0.0080173337739256  0.3063690029489073
  0.1586663469816725  0.6586496662260711  0.3602979970510966
  0.6763049130526205  0.6762918169842479  0.3597360483144788
 
  0.00000000E+00  0.00000000E+00  0.00000000E+00
  0.00000000E+00  0.00000000E+00  0.00000000E+00
  0.00000000E+00  0.00000000E+00  0.00000000E+00
  0.00000000E+00  0.00000000E+00  0.00000000E+00
  0.00000000E+00  0.00000000E+00  0.00000000E+00
  0.00000000E+00  0.00000000E+00  0.00000000E+00
  0.00000000E+00  0.00000000E+00  0.00000000E+00
  0.00000000E+00  0.00000000E+00  0.00000000E+00
  0.00000000E+00  0.00000000E+00  0.00000000E+00
  0.00000000E+00  0.00000000E+00  0.00000000E+00
  0.00000000E+00  0.00000000E+00  0.00000000E+00
  0.00000000E+00  0.00000000E+00  0.00000000E+00
  0.00000000E+00  0.00000000E+00  0.00000000E+00
  0.00000000E+00  0.00000000E+00  0.00000000E+00
