2 Te4                                   
   1.00000000000000     
     8.5032110517156099   -0.0159531532895951    0.0098304148806478
    -2.1327123693007688    3.6939332055572200    0.0000101319611914
     0.0472491064677874    0.0273778609277855   42.4141129462865933
   Mn   Sc   Sn   Te
     1     1     4     8
Direct
  0.3333330000000032  0.3333330000000032  0.3333330000000032
  0.8333330000000032  0.3333330000000032  0.3333330000000032
  0.0022002763119540  0.0022026436673338  0.4248885706600019
  0.4977842175976901  0.9977856815958036  0.4280087908287181
  0.1688827824023067  0.6688813184041932  0.2386582091712857
  0.6644667236880427  0.6644643563326629  0.2417784293400021
  0.3282326775554019  0.3282321447355148  0.4663680612000874
  0.8382424769630132  0.3382409548854529  0.4647240590596894
  0.3384333224446045  0.3384338552644917  0.2002979387999119
  0.8284235230369932  0.3284250451145536  0.2019419409403098
  0.0010215735607014  0.0010216558328369  0.2937074085474594
  0.4969475721564827  0.9969496940656207  0.2943307748731185
  0.1697194278435141  0.6697173059343761  0.3723362251268854
  0.6656454264392954  0.6656453441671600  0.3729595914525445
 
  0.00000000E+00  0.00000000E+00  0.00000000E+00
  0.00000000E+00  0.00000000E+00  0.00000000E+00
  0.00000000E+00  0.00000000E+00  0.00000000E+00
  0.00000000E+00  0.00000000E+00  0.00000000E+00
  0.00000000E+00  0.00000000E+00  0.00000000E+00
  0.00000000E+00  0.00000000E+00  0.00000000E+00
  0.00000000E+00  0.00000000E+00  0.00000000E+00
  0.00000000E+00  0.00000000E+00  0.00000000E+00
  0.00000000E+00  0.00000000E+00  0.00000000E+00
  0.00000000E+00  0.00000000E+00  0.00000000E+00
  0.00000000E+00  0.00000000E+00  0.00000000E+00
  0.00000000E+00  0.00000000E+00  0.00000000E+00
  0.00000000E+00  0.00000000E+00  0.00000000E+00
  0.00000000E+00  0.00000000E+00  0.00000000E+00
