2 Te4                                   
   1.00000000000000     
     7.8822600655773716   -0.0131318098216347   -0.0282709761498058
    -1.9762547390740532    3.4221123969861318   -0.0004142534948575
    -0.1139113172363337   -0.0717272151038437   49.3843049781972141
   Mn   Ni   Sn   Se
     1     1     4     8
Direct
  0.3333330000000032  0.3333330000000032  0.3333330000000032
  0.8333330000000032  0.3333330000000032  0.3333330000000032
  0.9988329218128346  0.9988495827528916  0.4025089775305788
  0.5022075213842858  0.0021253544217680  0.4011189791586597
  0.1644594786157110  0.6645416455782287  0.2655480208413442
  0.6678340781871622  0.6678174172471052  0.2641580224694250
  0.3352870019552098  0.3351036545092405  0.4326021651699346
  0.8351742076305937  0.3354434034376446  0.4333316118995752
  0.3313789980447966  0.3315623454907660  0.2340638348300647
  0.8314917923694127  0.3312225965623618  0.2333343881004242
  0.9824072782435229  0.9828693389610128  0.3063210196842119
  0.5204295200418138  0.0198976064691868  0.3045532681744179
  0.1462374799581829  0.6467693935308101  0.3621137318255860
  0.6842597217564739  0.6837976610389840  0.3603459803157920
 
  0.00000000E+00  0.00000000E+00  0.00000000E+00
  0.00000000E+00  0.00000000E+00  0.00000000E+00
  0.00000000E+00  0.00000000E+00  0.00000000E+00
  0.00000000E+00  0.00000000E+00  0.00000000E+00
  0.00000000E+00  0.00000000E+00  0.00000000E+00
  0.00000000E+00  0.00000000E+00  0.00000000E+00
  0.00000000E+00  0.00000000E+00  0.00000000E+00
  0.00000000E+00  0.00000000E+00  0.00000000E+00
  0.00000000E+00  0.00000000E+00  0.00000000E+00
  0.00000000E+00  0.00000000E+00  0.00000000E+00
  0.00000000E+00  0.00000000E+00  0.00000000E+00
  0.00000000E+00  0.00000000E+00  0.00000000E+00
  0.00000000E+00  0.00000000E+00  0.00000000E+00
  0.00000000E+00  0.00000000E+00  0.00000000E+00
