2 Te4                                   
   1.00000000000000     
     7.6563085921402321    0.0089949877163734   -0.0150922777509173
    -1.9101831527344293    3.3085045703432132    0.0000069809492231
     0.0227640814801313    0.0132620649409479   52.5006655001700082
   Mn   Mo   Sn   S 
     1     1     4     8
Direct
  0.3333330000000032  0.3333330000000032  0.3333330000000032
  0.8333330000000032  0.3333330000000032  0.3333330000000032
  0.0016743435355728  0.0016743222324866  0.3985417839304405
  0.4983942830423143  0.9983965415195136  0.4002678347813787
  0.1682727169576826  0.6682704584804832  0.2663991652186252
  0.6649926564644241  0.6649926777675101  0.2681252160695634
  0.3245650803789209  0.3245637325126904  0.4267289542278799
  0.8417106089799968  0.3417102837720640  0.4256979834510417
  0.3421009196210855  0.3421022674873160  0.2399370457721193
  0.8249553910200096  0.3249557162279424  0.2409680165489577
  0.9883231676366473  0.9883247927279388  0.3072773634492266
  0.5131917062482908  0.0131893808985466  0.3063388181678702
  0.1534752937517058  0.6534776191014502  0.3603281818321337
  0.6783438323633495  0.6783422072720580  0.3593896365507773
 
  0.00000000E+00  0.00000000E+00  0.00000000E+00
  0.00000000E+00  0.00000000E+00  0.00000000E+00
  0.00000000E+00  0.00000000E+00  0.00000000E+00
  0.00000000E+00  0.00000000E+00  0.00000000E+00
  0.00000000E+00  0.00000000E+00  0.00000000E+00
  0.00000000E+00  0.00000000E+00  0.00000000E+00
  0.00000000E+00  0.00000000E+00  0.00000000E+00
  0.00000000E+00  0.00000000E+00  0.00000000E+00
  0.00000000E+00  0.00000000E+00  0.00000000E+00
  0.00000000E+00  0.00000000E+00  0.00000000E+00
  0.00000000E+00  0.00000000E+00  0.00000000E+00
  0.00000000E+00  0.00000000E+00  0.00000000E+00
  0.00000000E+00  0.00000000E+00  0.00000000E+00
  0.00000000E+00  0.00000000E+00  0.00000000E+00
