2 Te4                                   
   1.00000000000000     
     7.6296887507286941    0.0486882311545078   -0.0094295319055125
    -1.8862493296728258    3.2676121945823366    0.0001515823584227
    -0.1809277228701018   -0.1123115742510044   53.1837773069490751
   Mn   V    Sn   S 
     1     1     4     8
Direct
  0.3333330000000032  0.3333330000000032  0.3333330000000032
  0.8333330000000032  0.3333330000000032  0.3333330000000032
 -0.0000211656592879 -0.0000230438940644  0.3971664167070730
  0.4965568372841203  0.9965545968421109  0.3989484987131071
  0.1701101627158769  0.6701124031578859  0.2677185012868968
  0.6666881656592847  0.6666900438940608  0.2695005832929309
  0.3214376908781859  0.3214457518232644  0.4253123747355748
  0.8411664851896922  0.3411637872915478  0.4241584111940737
  0.3452283091218205  0.3452202481767420  0.2413536252644243
  0.8254995148103142  0.3255022127084586  0.2425075888059257
  0.9824150094768963  0.9824112976122927  0.3080009581689978
  0.5167819404407865  0.0166780543795557  0.3067962787310597
  0.1498850595592102  0.6499889456204411  0.3598707212689441
  0.6842519905231005  0.6842557023877041  0.3586660418310061
 
  0.00000000E+00  0.00000000E+00  0.00000000E+00
  0.00000000E+00  0.00000000E+00  0.00000000E+00
  0.00000000E+00  0.00000000E+00  0.00000000E+00
  0.00000000E+00  0.00000000E+00  0.00000000E+00
  0.00000000E+00  0.00000000E+00  0.00000000E+00
  0.00000000E+00  0.00000000E+00  0.00000000E+00
  0.00000000E+00  0.00000000E+00  0.00000000E+00
  0.00000000E+00  0.00000000E+00  0.00000000E+00
  0.00000000E+00  0.00000000E+00  0.00000000E+00
  0.00000000E+00  0.00000000E+00  0.00000000E+00
  0.00000000E+00  0.00000000E+00  0.00000000E+00
  0.00000000E+00  0.00000000E+00  0.00000000E+00
  0.00000000E+00  0.00000000E+00  0.00000000E+00
  0.00000000E+00  0.00000000E+00  0.00000000E+00
