2 Te4                                   
   1.00000000000000     
     8.2803162048793126    0.0080217364764062   -0.0120649439915320
    -2.0666061346128592    3.5811942530910450    0.0011942951981556
    -0.0699729331215413   -0.0255260256337999   44.8533146811732664
   Mn   Ti   Bi   Se
     1     1     4     8
Direct
  0.3333330000000032  0.3333330000000032  0.3333330000000032
  0.8333330000000032  0.3333330000000032  0.3333330000000032
  0.0000187243824534 -0.0000878136450659  0.4109374397036463
  0.5002616759922858  0.0002786731079253  0.4121755321464133
  0.1664053240077109  0.6663883268920716  0.2544914678535906
  0.6666482756175435  0.6667548136450626  0.2557295602963576
  0.3333185578163673  0.3333139964388810  0.4469641987779984
  0.8345170798150309  0.3345121437134804  0.4466136914267659
  0.3333474421836392  0.3333520035611254  0.2197018012220010
  0.8321489201849755  0.3321538562865261  0.2200523085732333
  0.0025427614537975  0.0022860572102487  0.3006494823303432
  0.4976823474448993  0.9972574645818078  0.3008338992120887
  0.1689846525550976  0.6694095354181890  0.3658331007879152
  0.6641242385461991  0.6643809427897481  0.3660175176696607
 
  0.00000000E+00  0.00000000E+00  0.00000000E+00
  0.00000000E+00  0.00000000E+00  0.00000000E+00
  0.00000000E+00  0.00000000E+00  0.00000000E+00
  0.00000000E+00  0.00000000E+00  0.00000000E+00
  0.00000000E+00  0.00000000E+00  0.00000000E+00
  0.00000000E+00  0.00000000E+00  0.00000000E+00
  0.00000000E+00  0.00000000E+00  0.00000000E+00
  0.00000000E+00  0.00000000E+00  0.00000000E+00
  0.00000000E+00  0.00000000E+00  0.00000000E+00
  0.00000000E+00  0.00000000E+00  0.00000000E+00
  0.00000000E+00  0.00000000E+00  0.00000000E+00
  0.00000000E+00  0.00000000E+00  0.00000000E+00
  0.00000000E+00  0.00000000E+00  0.00000000E+00
  0.00000000E+00  0.00000000E+00  0.00000000E+00
