2 Te4                                   
   1.00000000000000     
     7.7870655554397894    0.0113889191766065   -0.0049333368085403
    -1.9418361632773071    3.3633344731076456    0.0000199398776275
    -0.0527290843114054   -0.0300612899917278   50.7692653290858260
   Mn   Ti   Sb   S 
     1     1     4     8
Direct
  0.3333330000000032  0.3333330000000032  0.3333330000000032
  0.8333330000000032  0.3333330000000032  0.3333330000000032
  0.9987293833754108  0.9987418930303885  0.3981954350528383
  0.4986939564879344  0.9987021100452298  0.3994547848395159
  0.1679730435120623  0.6679648899547670  0.2672122151604880
  0.6679376166245860  0.6679251069696083  0.2684715649471656
  0.3342803010626881  0.3342557996017853  0.4272756865252312
  0.8343821476588177  0.3343644825784232  0.4266621008903533
  0.3323856989373183  0.3324102003982212  0.2393903134747682
  0.8322838523411887  0.3323015174215832  0.2400038991096460
  0.9997341467376563  0.9997361784706404  0.3048161147711838
  0.4957924758092191  0.9957654411071640  0.3052037931632484
  0.1708745241907776  0.6709015588928328  0.3614632068367555
  0.6669328532623405  0.6669308215293563  0.3618508852288201
 
  0.00000000E+00  0.00000000E+00  0.00000000E+00
  0.00000000E+00  0.00000000E+00  0.00000000E+00
  0.00000000E+00  0.00000000E+00  0.00000000E+00
  0.00000000E+00  0.00000000E+00  0.00000000E+00
  0.00000000E+00  0.00000000E+00  0.00000000E+00
  0.00000000E+00  0.00000000E+00  0.00000000E+00
  0.00000000E+00  0.00000000E+00  0.00000000E+00
  0.00000000E+00  0.00000000E+00  0.00000000E+00
  0.00000000E+00  0.00000000E+00  0.00000000E+00
  0.00000000E+00  0.00000000E+00  0.00000000E+00
  0.00000000E+00  0.00000000E+00  0.00000000E+00
  0.00000000E+00  0.00000000E+00  0.00000000E+00
  0.00000000E+00  0.00000000E+00  0.00000000E+00
  0.00000000E+00  0.00000000E+00  0.00000000E+00
