2 Te4                                   
   1.00000000000000     
     8.0144132630911749    0.0221635788378962   -0.0202292638304009
    -1.9939991636824232    3.4511936348741954   -0.0003812723806016
    -0.0793422966642480   -0.0509979921085775   48.0373522944472953
   Mn   Ni   Pb   Se
     1     1     4     8
Direct
  0.3333330000000032  0.3333330000000032  0.3333330000000032
  0.8333330000000032  0.3333330000000032  0.3333330000000032
  0.0010898546311603  0.0011871209158645  0.4092463861216227
  0.5040890113942633  0.0041728239504806  0.4072846400935178
  0.1625779886057334  0.6624941760495162  0.2593823599064861
  0.6655771453688365  0.6654798790841323  0.2574206138783812
  0.3419419200117593  0.3417728225915240  0.4413405094094124
  0.8316060672021175  0.3315800703687964  0.4423968663492560
  0.3247240799882471  0.3248931774084824  0.2253254905905869
  0.8350599327978889  0.3350859296312100  0.2242691336507433
  0.9786967160489730  0.9786987571759143  0.3075068751269956
  0.5139954759667186  0.0138473359382445  0.3058977454519792
  0.1526715240332783  0.6528196640617523  0.3607692545480247
  0.6879702839510238  0.6879682428240825  0.3591601248730083
 
  0.00000000E+00  0.00000000E+00  0.00000000E+00
  0.00000000E+00  0.00000000E+00  0.00000000E+00
  0.00000000E+00  0.00000000E+00  0.00000000E+00
  0.00000000E+00  0.00000000E+00  0.00000000E+00
  0.00000000E+00  0.00000000E+00  0.00000000E+00
  0.00000000E+00  0.00000000E+00  0.00000000E+00
  0.00000000E+00  0.00000000E+00  0.00000000E+00
  0.00000000E+00  0.00000000E+00  0.00000000E+00
  0.00000000E+00  0.00000000E+00  0.00000000E+00
  0.00000000E+00  0.00000000E+00  0.00000000E+00
  0.00000000E+00  0.00000000E+00  0.00000000E+00
  0.00000000E+00  0.00000000E+00  0.00000000E+00
  0.00000000E+00  0.00000000E+00  0.00000000E+00
  0.00000000E+00  0.00000000E+00  0.00000000E+00
