2 Te4                                   
   1.00000000000000     
     8.1742876751955045    0.0015987016624336   -0.0018826923746303
    -2.0428806339137222    3.5383532446539441   -0.0000076584010717
    -0.0067671147615362   -0.0040028198231899   46.0056143406139313
   Mn   Ni   Bi   Se
     1     1     4     8
Direct
  0.3333330000000032  0.3333330000000032  0.3333330000000032
  0.8333330000000032  0.3333330000000032  0.3333330000000032
  0.9976827725630143  0.9976929640636810  0.4080060521064576
  0.5020683702180889  0.0020629504438774  0.4075539262697297
  0.1645986297819077  0.6646040495561194  0.2591130737302741
  0.6689842274369825  0.6689740359363158  0.2586609478935463
  0.3375679278047511  0.3375654404383621  0.4424124237448379
  0.8282505774294143  0.3282544068472555  0.4431021966094881
  0.3290980721952553  0.3291005595616443  0.2242535762551614
  0.8384154225705921  0.3384115931527509  0.2235638033905113
  0.9881657256968523  0.9881684398813966  0.3043359765836876
  0.5134760520238544  0.0134770286187789  0.3034154136950908
  0.1531909479761424  0.6531899713812178  0.3632515863049131
  0.6785012743031444  0.6784985601186002  0.3623310234163163
 
  0.00000000E+00  0.00000000E+00  0.00000000E+00
  0.00000000E+00  0.00000000E+00  0.00000000E+00
  0.00000000E+00  0.00000000E+00  0.00000000E+00
  0.00000000E+00  0.00000000E+00  0.00000000E+00
  0.00000000E+00  0.00000000E+00  0.00000000E+00
  0.00000000E+00  0.00000000E+00  0.00000000E+00
  0.00000000E+00  0.00000000E+00  0.00000000E+00
  0.00000000E+00  0.00000000E+00  0.00000000E+00
  0.00000000E+00  0.00000000E+00  0.00000000E+00
  0.00000000E+00  0.00000000E+00  0.00000000E+00
  0.00000000E+00  0.00000000E+00  0.00000000E+00
  0.00000000E+00  0.00000000E+00  0.00000000E+00
  0.00000000E+00  0.00000000E+00  0.00000000E+00
  0.00000000E+00  0.00000000E+00  0.00000000E+00
