2 Te4                                   
   1.00000000000000     
     8.2129687870222678    0.0033404771577901   -0.0020980646884146
    -2.0517973565981911    3.5535449279718927   -0.0000874742097698
    -0.0468583830915630   -0.0282075407370114   45.5876446004672360
   Mn   Co   Bi   Se
     1     1     4     8
Direct
  0.3333330000000032  0.3333330000000032  0.3333330000000032
  0.8333330000000032  0.3333330000000032  0.3333330000000032
  0.9981526244850256  0.9981566055498311  0.4088224802399852
  0.5016166836129977  0.0016213594948496  0.4086105020906576
  0.1650503163869989  0.6650456405051473  0.2580564979093463
  0.6685143755149712  0.6685103944501657  0.2578445197600187
  0.3371397500567944  0.3371401823365170  0.4435377854646436
  0.8310523994580304  0.3310577591526457  0.4440735472872355
  0.3295262499432121  0.3295258176634894  0.2231282145353557
  0.8356136005419760  0.3356082408473607  0.2225924527127637
  0.9907811096586079  0.9907724534778278  0.3035915145980644
  0.5076865251705101  0.0076776503266201  0.3026750929063902
  0.1589804748294866  0.6589893496733766  0.3639919070936137
  0.6758858903413889  0.6758945465221690  0.3630754854019395
 
  0.00000000E+00  0.00000000E+00  0.00000000E+00
  0.00000000E+00  0.00000000E+00  0.00000000E+00
  0.00000000E+00  0.00000000E+00  0.00000000E+00
  0.00000000E+00  0.00000000E+00  0.00000000E+00
  0.00000000E+00  0.00000000E+00  0.00000000E+00
  0.00000000E+00  0.00000000E+00  0.00000000E+00
  0.00000000E+00  0.00000000E+00  0.00000000E+00
  0.00000000E+00  0.00000000E+00  0.00000000E+00
  0.00000000E+00  0.00000000E+00  0.00000000E+00
  0.00000000E+00  0.00000000E+00  0.00000000E+00
  0.00000000E+00  0.00000000E+00  0.00000000E+00
  0.00000000E+00  0.00000000E+00  0.00000000E+00
  0.00000000E+00  0.00000000E+00  0.00000000E+00
  0.00000000E+00  0.00000000E+00  0.00000000E+00
