2 Te4                                   
   1.00000000000000     
     8.4171715799672313    0.0314236678462941    0.0111714142769928
    -2.0906863336300661    3.6211722803168875    0.0000236511283425
     0.0622571264964328    0.0361606692336255   43.5673969415241658
   Mn   Ru   Sn   Te
     1     1     4     8
Direct
  0.3333330000000032  0.3333330000000032  0.3333330000000032
  0.8333330000000032  0.3333330000000032  0.3333330000000032
  0.9969097325909485  0.9969115684134656  0.4203268430072190
  0.5054272507188323  0.0054255811156203  0.4202831983107752
  0.1612397492811644  0.6612414188843834  0.2463838016892286
  0.6697572674090483  0.6697554315865312  0.2463401569927849
  0.3333468145547937  0.3333466644194146  0.4581329780189817
  0.8321367158638354  0.3321372187260628  0.4595354834346611
  0.3333191854452127  0.3333193355805918  0.2085330219810175
  0.8345292841361710  0.3345287812739436  0.2071305165653383
  0.9799650476959461  0.9799640551819159  0.3006315179504252
  0.5241129060745637  0.0241110865232498  0.2985563424975957
  0.1425540939254330  0.6425559134767469  0.3681106575024082
  0.6867019523040507  0.6867029448180809  0.3660354820495787
 
  0.00000000E+00  0.00000000E+00  0.00000000E+00
  0.00000000E+00  0.00000000E+00  0.00000000E+00
  0.00000000E+00  0.00000000E+00  0.00000000E+00
  0.00000000E+00  0.00000000E+00  0.00000000E+00
  0.00000000E+00  0.00000000E+00  0.00000000E+00
  0.00000000E+00  0.00000000E+00  0.00000000E+00
  0.00000000E+00  0.00000000E+00  0.00000000E+00
  0.00000000E+00  0.00000000E+00  0.00000000E+00
  0.00000000E+00  0.00000000E+00  0.00000000E+00
  0.00000000E+00  0.00000000E+00  0.00000000E+00
  0.00000000E+00  0.00000000E+00  0.00000000E+00
  0.00000000E+00  0.00000000E+00  0.00000000E+00
  0.00000000E+00  0.00000000E+00  0.00000000E+00
  0.00000000E+00  0.00000000E+00  0.00000000E+00
