2 Te4                                   
   1.00000000000000     
     8.0541527990957444   -0.0017168884002839    0.0001994539463193
    -2.0142820319985821    3.4886586870340213    0.0000055933053089
    -0.0803253986524845   -0.0461657800365924   47.3681082340082327
   Mn   Co   Sb   Se
     1     1     4     8
Direct
  0.3333330000000032  0.3333330000000032  0.3333330000000032
  0.8333330000000032  0.3333330000000032  0.3333330000000032
  0.9981020596283020  0.9981037755062012  0.4048160846081693
  0.5020740420907031  0.0020770526798878  0.4049273677264542
  0.1645929579092937  0.6645899473201089  0.2617396322735497
  0.6685649403716948  0.6685632244937956  0.2618509153918346
  0.3380639847522761  0.3380661202769219  0.4373723121344311
  0.8304714606368461  0.3304749348004826  0.4376963623177354
  0.3286020152477303  0.3285998797230845  0.2292936878655681
  0.8361945393631603  0.3361910651995238  0.2289696376822639
  0.9905795724250348  0.9905664227342125  0.3038926924639357
  0.5085346770404110  0.0085229286685257  0.3031167301823544
  0.1581323229595858  0.6581440713314711  0.3635502698176495
  0.6760874275749620  0.6761005772657772  0.3627743075360682
 
  0.00000000E+00  0.00000000E+00  0.00000000E+00
  0.00000000E+00  0.00000000E+00  0.00000000E+00
  0.00000000E+00  0.00000000E+00  0.00000000E+00
  0.00000000E+00  0.00000000E+00  0.00000000E+00
  0.00000000E+00  0.00000000E+00  0.00000000E+00
  0.00000000E+00  0.00000000E+00  0.00000000E+00
  0.00000000E+00  0.00000000E+00  0.00000000E+00
  0.00000000E+00  0.00000000E+00  0.00000000E+00
  0.00000000E+00  0.00000000E+00  0.00000000E+00
  0.00000000E+00  0.00000000E+00  0.00000000E+00
  0.00000000E+00  0.00000000E+00  0.00000000E+00
  0.00000000E+00  0.00000000E+00  0.00000000E+00
  0.00000000E+00  0.00000000E+00  0.00000000E+00
  0.00000000E+00  0.00000000E+00  0.00000000E+00
