2 Te4                                   
   1.00000000000000     
     8.1450794535412623    0.0088247746106874   -0.0173652494146287
    -2.0324499622889305    3.5205006814630786   -0.0001372601826709
    -0.0578665302530200   -0.0351955484900185   46.3811173917722712
   Mn   Sc   Pb   Se
     1     1     4     8
Direct
  0.3333330000000032  0.3333330000000032  0.3333330000000032
  0.8333330000000032  0.3333330000000032  0.3333330000000032
  0.9993134112428926  0.9993013376559262  0.4144378332847941
  0.4965999115417508  0.9966586463746595  0.4162597403170386
  0.1700670884582459  0.6700083536253373  0.2504072596829653
  0.6673535887571042  0.6673656623440706  0.2522291667152098
  0.3281812953133618  0.3282301466750637  0.4499712315423197
  0.8366861459870212  0.3365761541327781  0.4489273220700880
  0.3384847046866447  0.3384358533249427  0.2166947684576797
  0.8299798540129852  0.3300898458672283  0.2177386779299114
  0.9986294305761076  0.9985718244483027  0.3012863020010803
  0.4940459389605636  0.9940386276821243  0.3024838849573643
  0.1726210610394331  0.6726283723178725  0.3641831150426396
  0.6680375694238891  0.6680951755516941  0.3653806979989236
 
  0.00000000E+00  0.00000000E+00  0.00000000E+00
  0.00000000E+00  0.00000000E+00  0.00000000E+00
  0.00000000E+00  0.00000000E+00  0.00000000E+00
  0.00000000E+00  0.00000000E+00  0.00000000E+00
  0.00000000E+00  0.00000000E+00  0.00000000E+00
  0.00000000E+00  0.00000000E+00  0.00000000E+00
  0.00000000E+00  0.00000000E+00  0.00000000E+00
  0.00000000E+00  0.00000000E+00  0.00000000E+00
  0.00000000E+00  0.00000000E+00  0.00000000E+00
  0.00000000E+00  0.00000000E+00  0.00000000E+00
  0.00000000E+00  0.00000000E+00  0.00000000E+00
  0.00000000E+00  0.00000000E+00  0.00000000E+00
  0.00000000E+00  0.00000000E+00  0.00000000E+00
  0.00000000E+00  0.00000000E+00  0.00000000E+00
