2 Te4                                   
   1.00000000000000     
     8.8877699010614393    0.0224065909155545    0.0018678052505711
    -2.2122409060421506    3.8316624134045707   -0.0000089914457470
     0.0134008716413013    0.0078068411390708   39.0210793013972221
   Mn   Sc   Bi   Te
     1     1     4     8
Direct
  0.3333330000000032  0.3333330000000032  0.3333330000000032
  0.8333330000000032  0.3333330000000032  0.3333330000000032
 -0.0000252245871973 -0.0000247689726895  0.4305722644825981
  0.4987075594300681  0.9987081649068417  0.4337753237689047
  0.1679594405699285  0.6679588350931551  0.2328916762310994
  0.6666922245871939  0.6666917689726860  0.2360947355174058
  0.3299253193757098  0.3299258244258483  0.4754585522832314
  0.8357849669288353  0.3357860418330190  0.4744848384721924
  0.3367406806242966  0.3367401755741581  0.1912074477167680
  0.8308810330711711  0.3308799581669875  0.1921811615278070
  0.9990333903275654  0.9990327082789353  0.2920565445746567
  0.4991822108676151  0.9991788765342074  0.2929935967221104
  0.1674847891323816  0.6674881234657893  0.3736734032778935
  0.6676336096724313  0.6676342917210615  0.3746104554253472
 
  0.00000000E+00  0.00000000E+00  0.00000000E+00
  0.00000000E+00  0.00000000E+00  0.00000000E+00
  0.00000000E+00  0.00000000E+00  0.00000000E+00
  0.00000000E+00  0.00000000E+00  0.00000000E+00
  0.00000000E+00  0.00000000E+00  0.00000000E+00
  0.00000000E+00  0.00000000E+00  0.00000000E+00
  0.00000000E+00  0.00000000E+00  0.00000000E+00
  0.00000000E+00  0.00000000E+00  0.00000000E+00
  0.00000000E+00  0.00000000E+00  0.00000000E+00
  0.00000000E+00  0.00000000E+00  0.00000000E+00
  0.00000000E+00  0.00000000E+00  0.00000000E+00
  0.00000000E+00  0.00000000E+00  0.00000000E+00
  0.00000000E+00  0.00000000E+00  0.00000000E+00
  0.00000000E+00  0.00000000E+00  0.00000000E+00
