2 Te4                                   
   1.00000000000000     
     7.7324672157323739   -0.0174642413726263   -0.1386821205337682
    -1.9406974600869209    3.3602600181596025   -0.0008528196590829
    -0.3397357903869189   -0.2091331870062273   51.2929097569410786
   Mn   Ni   Pb   S 
     1     1     4     8
Direct
  0.3333330000000032  0.3333330000000032  0.3333330000000032
  0.8333330000000032  0.3333330000000032  0.3333330000000032
  0.0084276433604292  0.0082906909912958  0.3986347300078266
  0.5113427795479407  0.0111509069849610  0.3972126879755011
  0.1553242204520562  0.6555160930150359  0.2694543120245028
  0.6582393566395675  0.6583763090087009  0.2680322699921773
  0.3510040402307260  0.3509684483192350  0.4269814145375828
  0.8485359897546770  0.3486225034027158  0.4277071142740126
  0.3156619597692805  0.3156975516807714  0.2396845854624166
  0.8181300102453294  0.3180434965972906  0.2389588857259796
  0.9790023598585650  0.9789963828834380  0.3096209179591431
  0.5167819155473579  0.0164462411828292  0.3085201803158637
  0.1498850844526389  0.6502207588171677  0.3581468196841402
  0.6876646401414318  0.6876706171165587  0.3570460820408608
 
  0.00000000E+00  0.00000000E+00  0.00000000E+00
  0.00000000E+00  0.00000000E+00  0.00000000E+00
  0.00000000E+00  0.00000000E+00  0.00000000E+00
  0.00000000E+00  0.00000000E+00  0.00000000E+00
  0.00000000E+00  0.00000000E+00  0.00000000E+00
  0.00000000E+00  0.00000000E+00  0.00000000E+00
  0.00000000E+00  0.00000000E+00  0.00000000E+00
  0.00000000E+00  0.00000000E+00  0.00000000E+00
  0.00000000E+00  0.00000000E+00  0.00000000E+00
  0.00000000E+00  0.00000000E+00  0.00000000E+00
  0.00000000E+00  0.00000000E+00  0.00000000E+00
  0.00000000E+00  0.00000000E+00  0.00000000E+00
  0.00000000E+00  0.00000000E+00  0.00000000E+00
  0.00000000E+00  0.00000000E+00  0.00000000E+00
