2 Te4                                   
   1.00000000000000     
     8.1638539177920819   -0.0239785971925837    0.0211998217392569
    -2.0513974877281087    3.5449780193243985    0.0003879870584143
     0.0973335528394211    0.0612646205797853   46.0621590686744469
   Mn   Y    Bi   S 
     1     1     4     8
Direct
  0.3333330000000032  0.3333330000000032  0.3333330000000032
  0.8333330000000032  0.3333330000000032  0.3333330000000032
  0.0040369450338930  0.0044378179594937  0.4088268349382000
  0.4975228907874258  0.9977533895007668  0.4104291310322880
  0.1691441092125710  0.6689136104992300  0.2562378689677159
  0.6626300549661039  0.6622291820405031  0.2578401650618039
  0.3307966621688754  0.3305659510832711  0.4401246294974722
  0.8359640709540198  0.3358806359671696  0.4388073510973121
  0.3358693378311310  0.3361000489167353  0.2265413705025269
  0.8307019290459866  0.3307853640328368  0.2278586489026871
  0.0081702968616857  0.0084056677505785  0.3011914355012074
  0.4900266313573380  0.9897567136668691  0.3022252754281105
  0.1766403686426588  0.6769102863331277  0.3644417245718934
  0.6584967031383111  0.6582613322494183  0.3654755644987965
 
  0.00000000E+00  0.00000000E+00  0.00000000E+00
  0.00000000E+00  0.00000000E+00  0.00000000E+00
  0.00000000E+00  0.00000000E+00  0.00000000E+00
  0.00000000E+00  0.00000000E+00  0.00000000E+00
  0.00000000E+00  0.00000000E+00  0.00000000E+00
  0.00000000E+00  0.00000000E+00  0.00000000E+00
  0.00000000E+00  0.00000000E+00  0.00000000E+00
  0.00000000E+00  0.00000000E+00  0.00000000E+00
  0.00000000E+00  0.00000000E+00  0.00000000E+00
  0.00000000E+00  0.00000000E+00  0.00000000E+00
  0.00000000E+00  0.00000000E+00  0.00000000E+00
  0.00000000E+00  0.00000000E+00  0.00000000E+00
  0.00000000E+00  0.00000000E+00  0.00000000E+00
  0.00000000E+00  0.00000000E+00  0.00000000E+00
