2 Te4                                   
   1.00000000000000     
     8.7923955760719696   -0.0295235853554238    0.0136768577496195
    -2.2109437006018875    3.8191087832444235   -0.0020240451291416
     0.0686827833368203    0.0177570149252043   39.7089134444806291
   Mn   Y    Sb   Te
     1     1     4     8
Direct
  0.3333330000000032  0.3333330000000032  0.3333330000000032
  0.8333330000000032  0.3333330000000032  0.3333330000000032
  0.9990174883443493  0.9996986136850834  0.4280384217506716
  0.4955334654639637  0.9955489599629143  0.4341788501063041
  0.1711335345360331  0.6711180400370825  0.2324881498936996
  0.6676495116556475  0.6669683863149134  0.2386285782493322
  0.3286448697357868  0.3286844630755135  0.4723008536880692
  0.8406800614791008  0.3403898722496985  0.4699116541415490
  0.3380211302642196  0.3379815369244930  0.1943651463119301
  0.8259859385209056  0.3262761277503080  0.1967543458584503
  0.0082900775912907  0.0084720067548419  0.2881908578555542
  0.4856945101603674  0.9865969714238573  0.2907064883287382
  0.1809724898396295  0.6800700285761395  0.3759605116712657
  0.6583769224087063  0.6581949932451550  0.3784761421444497
 
  0.00000000E+00  0.00000000E+00  0.00000000E+00
  0.00000000E+00  0.00000000E+00  0.00000000E+00
  0.00000000E+00  0.00000000E+00  0.00000000E+00
  0.00000000E+00  0.00000000E+00  0.00000000E+00
  0.00000000E+00  0.00000000E+00  0.00000000E+00
  0.00000000E+00  0.00000000E+00  0.00000000E+00
  0.00000000E+00  0.00000000E+00  0.00000000E+00
  0.00000000E+00  0.00000000E+00  0.00000000E+00
  0.00000000E+00  0.00000000E+00  0.00000000E+00
  0.00000000E+00  0.00000000E+00  0.00000000E+00
  0.00000000E+00  0.00000000E+00  0.00000000E+00
  0.00000000E+00  0.00000000E+00  0.00000000E+00
  0.00000000E+00  0.00000000E+00  0.00000000E+00
  0.00000000E+00  0.00000000E+00  0.00000000E+00
