2 Te4                                   
   1.00000000000000     
     8.7328615149420425   -0.0064132455555705   -0.0024741520371081
    -2.1859936069556420    3.7862255699211675    0.0000048981846324
    -0.0096468535375469   -0.0055226255490539   40.2654092245589439
   Mn   Zn   Bi   Te
     1     1     4     8
Direct
  0.3333330000000032  0.3333330000000032  0.3333330000000032
  0.8333330000000032  0.3333330000000032  0.3333330000000032
  0.9994152399599741  0.9994134056901013  0.4260073222877718
  0.5004120260210835  0.0004098625591588  0.4248077769051233
  0.1662549739789134  0.6662571374408385  0.2418592230948805
  0.6672517600400227  0.6672535943098955  0.2406596777122320
  0.3356423641740037  0.3356429395702190  0.4684824812065447
  0.8311339584852550  0.3311339469387188  0.4691116697008511
  0.3310236358260027  0.3310230604297874  0.1981835187934549
  0.8355320415147515  0.3355320530612876  0.1975543302991482
  0.9954402606148418  0.9954340115939002  0.2955113643402067
  0.5045072331860051  0.0045045102781477  0.2947558851948134
  0.1621597668139918  0.6621624897218492  0.3719111148051905
  0.6712267393851550  0.6712329884060966  0.3711556356597972
 
  0.00000000E+00  0.00000000E+00  0.00000000E+00
  0.00000000E+00  0.00000000E+00  0.00000000E+00
  0.00000000E+00  0.00000000E+00  0.00000000E+00
  0.00000000E+00  0.00000000E+00  0.00000000E+00
  0.00000000E+00  0.00000000E+00  0.00000000E+00
  0.00000000E+00  0.00000000E+00  0.00000000E+00
  0.00000000E+00  0.00000000E+00  0.00000000E+00
  0.00000000E+00  0.00000000E+00  0.00000000E+00
  0.00000000E+00  0.00000000E+00  0.00000000E+00
  0.00000000E+00  0.00000000E+00  0.00000000E+00
  0.00000000E+00  0.00000000E+00  0.00000000E+00
  0.00000000E+00  0.00000000E+00  0.00000000E+00
  0.00000000E+00  0.00000000E+00  0.00000000E+00
  0.00000000E+00  0.00000000E+00  0.00000000E+00
