2 Te4                                   
   1.00000000000000     
     8.5971847481487647    0.0132318893499118   -0.0025867057141144
    -2.1435675999007948    3.7134977299326501   -0.0016874072483252
    -0.0108165367354899   -0.0249305248677640   41.6472246286402950
   Mn   Ag   Sb   Te
     1     1     4     8
Direct
  0.3333330000000032  0.3333330000000032  0.3333330000000032
  0.8333330000000032  0.3333330000000032  0.3333330000000032
  0.0012908867610305  0.0011718741378666  0.4220582856334088
  0.4980592015388415  0.9981422906717355  0.4188519012372325
  0.1686077984611553  0.6685247093282612  0.2478150987627713
  0.6653761132389664  0.6654951258621300  0.2446087143665951
  0.3336978486003135  0.3340220367521544  0.4612339559229395
  0.8329466577167558  0.3326880212284326  0.4616180069369923
  0.3329681513996929  0.3326439632478521  0.2054320440770598
  0.8337193422832506  0.3339779787715667  0.2050479930630070
  0.0043776409152242  0.0046000970651495  0.2940272416740755
  0.4945110823826640  0.9947830561837223  0.2942451256321868
  0.1721559176173328  0.6718839438162745  0.3724218743678171
  0.6622893590847725  0.6620669029348472  0.3726397583259284
 
  0.00000000E+00  0.00000000E+00  0.00000000E+00
  0.00000000E+00  0.00000000E+00  0.00000000E+00
  0.00000000E+00  0.00000000E+00  0.00000000E+00
  0.00000000E+00  0.00000000E+00  0.00000000E+00
  0.00000000E+00  0.00000000E+00  0.00000000E+00
  0.00000000E+00  0.00000000E+00  0.00000000E+00
  0.00000000E+00  0.00000000E+00  0.00000000E+00
  0.00000000E+00  0.00000000E+00  0.00000000E+00
  0.00000000E+00  0.00000000E+00  0.00000000E+00
  0.00000000E+00  0.00000000E+00  0.00000000E+00
  0.00000000E+00  0.00000000E+00  0.00000000E+00
  0.00000000E+00  0.00000000E+00  0.00000000E+00
  0.00000000E+00  0.00000000E+00  0.00000000E+00
  0.00000000E+00  0.00000000E+00  0.00000000E+00
