2 Te4                                   
   1.00000000000000     
     7.9962139465496147    0.0012132603916144   -0.0042726757830568
    -1.9985290794935131    3.4615548717674356   -0.0000005107743226
     0.0028519820138919    0.0016441573294877   48.0747759853806897
   Mn   Cd   Bi   S 
     1     1     4     8
Direct
  0.3333330000000032  0.3333330000000032  0.3333330000000032
  0.8333330000000032  0.3333330000000032  0.3333330000000032
  0.0009568637969246  0.0009568242413886  0.4033621264244814
  0.4986333607303715  0.9986333659433462  0.4035543544091626
  0.1680336392696253  0.6680336340566506  0.2631126455908413
  0.6657101362030722  0.6657101757586081  0.2633048735755225
  0.3301417912296122  0.3301416827170234  0.4340949432787247
  0.8362306963631557  0.3362305971444703  0.4338335943683302
  0.3365242087703942  0.3365243172829830  0.2325710567212746
  0.8304353036368507  0.3304354028555361  0.2328324056316691
  0.0091497846762347  0.0091499553121593  0.3034318068236436
  0.4909548833494167  0.9909552388706543  0.3037316408972731
  0.1757121166505801  0.6757117611293425  0.3629353591027308
  0.6575172153237618  0.6575170446878376  0.3632351931763603
 
  0.00000000E+00  0.00000000E+00  0.00000000E+00
  0.00000000E+00  0.00000000E+00  0.00000000E+00
  0.00000000E+00  0.00000000E+00  0.00000000E+00
  0.00000000E+00  0.00000000E+00  0.00000000E+00
  0.00000000E+00  0.00000000E+00  0.00000000E+00
  0.00000000E+00  0.00000000E+00  0.00000000E+00
  0.00000000E+00  0.00000000E+00  0.00000000E+00
  0.00000000E+00  0.00000000E+00  0.00000000E+00
  0.00000000E+00  0.00000000E+00  0.00000000E+00
  0.00000000E+00  0.00000000E+00  0.00000000E+00
  0.00000000E+00  0.00000000E+00  0.00000000E+00
  0.00000000E+00  0.00000000E+00  0.00000000E+00
  0.00000000E+00  0.00000000E+00  0.00000000E+00
  0.00000000E+00  0.00000000E+00  0.00000000E+00
