2 Te4                                   
   1.00000000000000     
     8.6305132474561326    0.0528677935054201    0.0290226861214973
    -2.1347170091401484    3.6931362868593109   -0.0006967021263314
     0.1313219670407889    0.0685978322351637   41.6054111753343037
   Mn   Zr   Pb   Te
     1     1     4     8
Direct
  0.3333330000000032  0.3333330000000032  0.3333330000000032
  0.8333330000000032  0.3333330000000032  0.3333330000000032
  0.0058341483380991  0.0057999021839937  0.4345214794239581
  0.4959997771121878  0.9960631714887999  0.4371318848713048
  0.1706672228878089  0.6706038285111969  0.2295351151286991
  0.6608328516618979  0.6608670978160031  0.2321455205760457
  0.3277292579675476  0.3276867434756127  0.4790408002424300
  0.8338005308204393  0.3337028773178934  0.4765931074419092
  0.3389367420324588  0.3389792565243938  0.1876251997575694
  0.8328654691795672  0.3329631226821130  0.1900728925580900
  0.9916316407118784  0.9916745645019388  0.2927235077647492
  0.4978304136058613  0.9975478945237207  0.2954797618661772
  0.1688365863941353  0.6691191054762761  0.3711872381338266
  0.6750353592881184  0.6749924354980580  0.3739434922352547
 
  0.00000000E+00  0.00000000E+00  0.00000000E+00
  0.00000000E+00  0.00000000E+00  0.00000000E+00
  0.00000000E+00  0.00000000E+00  0.00000000E+00
  0.00000000E+00  0.00000000E+00  0.00000000E+00
  0.00000000E+00  0.00000000E+00  0.00000000E+00
  0.00000000E+00  0.00000000E+00  0.00000000E+00
  0.00000000E+00  0.00000000E+00  0.00000000E+00
  0.00000000E+00  0.00000000E+00  0.00000000E+00
  0.00000000E+00  0.00000000E+00  0.00000000E+00
  0.00000000E+00  0.00000000E+00  0.00000000E+00
  0.00000000E+00  0.00000000E+00  0.00000000E+00
  0.00000000E+00  0.00000000E+00  0.00000000E+00
  0.00000000E+00  0.00000000E+00  0.00000000E+00
  0.00000000E+00  0.00000000E+00  0.00000000E+00
