2 Te4                                   
   1.00000000000000     
     7.7367303501841613   -0.0046675224919677   -0.0018614553348049
    -1.9362017936186711    3.3527209223246790    0.0001809787574358
     0.0277125524216365    0.0182892764101729   51.3224473217812545
   Mn   Ru   Pb   S 
     1     1     4     8
Direct
  0.3333330000000032  0.3333330000000032  0.3333330000000032
  0.8333330000000032  0.3333330000000032  0.3333330000000032
  0.9977280691980404  0.9977451800659425  0.4031087612233484
  0.4984241442973203  0.9985178996234993  0.4023491719971724
  0.1682428557026766  0.6681491003764974  0.2643178280028315
  0.6689389308019564  0.6689218199340543  0.2635582387766555
  0.3335632860494748  0.3335695985190215  0.4317094793827171
  0.8289652478868916  0.3288514445544770  0.4320221080239103
  0.3331027139505316  0.3330964014809849  0.2349565206172821
  0.8377007521131148  0.3378145554455295  0.2346438919760890
  0.9735612181112080  0.9735001311046499  0.3095380272021235
  0.5254855977707640  0.0254046421695502  0.3085983064454070
  0.1411814022292331  0.6412623578304465  0.3580686935545969
  0.6931057818887888  0.6931668688953468  0.3571289727978804
 
  0.00000000E+00  0.00000000E+00  0.00000000E+00
  0.00000000E+00  0.00000000E+00  0.00000000E+00
  0.00000000E+00  0.00000000E+00  0.00000000E+00
  0.00000000E+00  0.00000000E+00  0.00000000E+00
  0.00000000E+00  0.00000000E+00  0.00000000E+00
  0.00000000E+00  0.00000000E+00  0.00000000E+00
  0.00000000E+00  0.00000000E+00  0.00000000E+00
  0.00000000E+00  0.00000000E+00  0.00000000E+00
  0.00000000E+00  0.00000000E+00  0.00000000E+00
  0.00000000E+00  0.00000000E+00  0.00000000E+00
  0.00000000E+00  0.00000000E+00  0.00000000E+00
  0.00000000E+00  0.00000000E+00  0.00000000E+00
  0.00000000E+00  0.00000000E+00  0.00000000E+00
  0.00000000E+00  0.00000000E+00  0.00000000E+00
