2 Te4                                   
   1.00000000000000     
     8.5904765734353923   -0.0000213362537335   -0.0008429322634491
    -2.1476294191426684    3.7197933822855807   -0.0000002702941672
    -0.0017339648952276   -0.0010082963100867   41.6462120691978868
   Mn   Zn   Sb   Te
     1     1     4     8
Direct
  0.3333330000000032  0.3333330000000032  0.3333330000000032
  0.8333330000000032  0.3333330000000032  0.3333330000000032
  0.9991924544934583  0.9991923089537779  0.4211309050867978
  0.5002984235151771  0.0002982637383596  0.4199438454508652
  0.1663685764848197  0.6663687362616371  0.2467231545491386
  0.6674745455065385  0.6674746910462189  0.2455360949132062
  0.3351620159090848  0.3351619352889674  0.4606842531416302
  0.8312400677367162  0.3312399343270278  0.4614194845452274
  0.3315039840909216  0.3315040647110390  0.2059817468583691
  0.8354259322632902  0.3354260656729786  0.2052465154547719
  0.9954299905191550  0.9954292034403314  0.2961944460217651
  0.5028656760077823  0.0028653914652553  0.2951779729538500
  0.1638013239922145  0.6638016085347415  0.3714890270461539
  0.6712370094808418  0.6712377965596654  0.3704725539782388
 
  0.00000000E+00  0.00000000E+00  0.00000000E+00
  0.00000000E+00  0.00000000E+00  0.00000000E+00
  0.00000000E+00  0.00000000E+00  0.00000000E+00
  0.00000000E+00  0.00000000E+00  0.00000000E+00
  0.00000000E+00  0.00000000E+00  0.00000000E+00
  0.00000000E+00  0.00000000E+00  0.00000000E+00
  0.00000000E+00  0.00000000E+00  0.00000000E+00
  0.00000000E+00  0.00000000E+00  0.00000000E+00
  0.00000000E+00  0.00000000E+00  0.00000000E+00
  0.00000000E+00  0.00000000E+00  0.00000000E+00
  0.00000000E+00  0.00000000E+00  0.00000000E+00
  0.00000000E+00  0.00000000E+00  0.00000000E+00
  0.00000000E+00  0.00000000E+00  0.00000000E+00
  0.00000000E+00  0.00000000E+00  0.00000000E+00
