2 Te4                                   
   1.00000000000000     
     8.4787161589463338   -0.0212253131809847   -0.0078345086796250
    -2.1288777706218180    3.6857119743464826   -0.0000466348450690
    -0.0433177471733373   -0.0252337974620130   42.6469952336659190
   Mn   Ag   Sn   Te
     1     1     4     8
Direct
  0.3333330000000032  0.3333330000000032  0.3333330000000032
  0.8333330000000032  0.3333330000000032  0.3333330000000032
  0.0003195078796558  0.0003339769813702  0.4210456236291543
  0.4998934769267128  0.9998495489293179  0.4188094886103264
  0.1667735230732839  0.6668174510706789  0.2478575113896775
  0.6663474921203409  0.6663330230186266  0.2456213763708497
  0.3377513218762050  0.3376104124661775  0.4590890228789702
  0.8302097730151395  0.3302751020014671  0.4595282821200513
  0.3289146781238014  0.3290555875338289  0.2075769771210290
  0.8364562269848669  0.3363908979985393  0.2071377178799481
  0.0070380924624041  0.0069581651619321  0.2944402414850018
  0.4972003785545219  0.9969883242494556  0.2955867745715574
  0.1694666214454748  0.6696786757505412  0.3710802254284465
  0.6596289075375926  0.6597088348380646  0.3722267585150021
 
  0.00000000E+00  0.00000000E+00  0.00000000E+00
  0.00000000E+00  0.00000000E+00  0.00000000E+00
  0.00000000E+00  0.00000000E+00  0.00000000E+00
  0.00000000E+00  0.00000000E+00  0.00000000E+00
  0.00000000E+00  0.00000000E+00  0.00000000E+00
  0.00000000E+00  0.00000000E+00  0.00000000E+00
  0.00000000E+00  0.00000000E+00  0.00000000E+00
  0.00000000E+00  0.00000000E+00  0.00000000E+00
  0.00000000E+00  0.00000000E+00  0.00000000E+00
  0.00000000E+00  0.00000000E+00  0.00000000E+00
  0.00000000E+00  0.00000000E+00  0.00000000E+00
  0.00000000E+00  0.00000000E+00  0.00000000E+00
  0.00000000E+00  0.00000000E+00  0.00000000E+00
  0.00000000E+00  0.00000000E+00  0.00000000E+00
