2 Te4                                   
   1.00000000000000     
     8.0334482445217770    0.0793507658765955   -0.0200204578217929
    -1.9740071088863518    3.4177467040019276    0.0000783758046656
    -0.1354530278206301   -0.0770845238227867   48.1950532041084827
   Mn   Nb   Bi   S 
     1     1     4     8
Direct
  0.3333330000000032  0.3333330000000032  0.3333330000000032
  0.8333330000000032  0.3333330000000032  0.3333330000000032
 -0.0005202883553293 -0.0004116055090843  0.4027769880070584
  0.4981739332365825  0.9982513202916961  0.4049643129921848
  0.1684930667634142  0.6684156797083007  0.2617026870078191
  0.6671872883553260  0.6670786055090812  0.2638900119929455
  0.3311109993821927  0.3310630781823105  0.4342749857179309
  0.8331749773975048  0.3331151519184485  0.4334245311655626
  0.3355550006178137  0.3356029218176960  0.2323910142820683
  0.8334910226025016  0.3335508480815579  0.2332414688344366
 -0.0020594180246750 -0.0020058723163026  0.3048143092018180
  0.4994247070749435 -0.0005324273691681  0.3049565928475463
  0.1672422929250533  0.6671994273691647  0.3617104071524576
  0.6687264180246717  0.6686728723162995  0.3618526907981859
 
  0.00000000E+00  0.00000000E+00  0.00000000E+00
  0.00000000E+00  0.00000000E+00  0.00000000E+00
  0.00000000E+00  0.00000000E+00  0.00000000E+00
  0.00000000E+00  0.00000000E+00  0.00000000E+00
  0.00000000E+00  0.00000000E+00  0.00000000E+00
  0.00000000E+00  0.00000000E+00  0.00000000E+00
  0.00000000E+00  0.00000000E+00  0.00000000E+00
  0.00000000E+00  0.00000000E+00  0.00000000E+00
  0.00000000E+00  0.00000000E+00  0.00000000E+00
  0.00000000E+00  0.00000000E+00  0.00000000E+00
  0.00000000E+00  0.00000000E+00  0.00000000E+00
  0.00000000E+00  0.00000000E+00  0.00000000E+00
  0.00000000E+00  0.00000000E+00  0.00000000E+00
  0.00000000E+00  0.00000000E+00  0.00000000E+00
