2 Te4                                   
   1.00000000000000     
     8.2868467572795357   -0.0077490699716279    0.0041425164455679
    -2.0750112833744359    3.5942873662682651    0.0000513069686397
     0.0428349782983044    0.0257986196567063   44.7037186083541300
   Mn   Nb   Bi   Se
     1     1     4     8
Direct
  0.3333330000000032  0.3333330000000032  0.3333330000000032
  0.8333330000000032  0.3333330000000032  0.3333330000000032
  0.0005423009357057  0.0005682184658373  0.4111269382249337
  0.5010125610940404  0.0010181875573258  0.4132001823819902
  0.1656544389059562  0.6656488124426708  0.2534668176180137
  0.6661246990642911  0.6660987815341597  0.2555400617750702
  0.3316470878962721  0.3316419321742651  0.4474693173625848
  0.8338132276145712  0.3338048880039615  0.4469339824356126
  0.3350189121037344  0.3350240678257413  0.2191966826374144
  0.8328527723854352  0.3328611119960450  0.2197320175643867
  0.0009226357029265  0.0009659588166191  0.3010242054407808
  0.5001850107887619  0.0001946897432044  0.3008945837620040
  0.1664819892112347  0.6664723102567925  0.3657724162379999
  0.6657443642970703  0.6657010411833778  0.3656427945592231
 
  0.00000000E+00  0.00000000E+00  0.00000000E+00
  0.00000000E+00  0.00000000E+00  0.00000000E+00
  0.00000000E+00  0.00000000E+00  0.00000000E+00
  0.00000000E+00  0.00000000E+00  0.00000000E+00
  0.00000000E+00  0.00000000E+00  0.00000000E+00
  0.00000000E+00  0.00000000E+00  0.00000000E+00
  0.00000000E+00  0.00000000E+00  0.00000000E+00
  0.00000000E+00  0.00000000E+00  0.00000000E+00
  0.00000000E+00  0.00000000E+00  0.00000000E+00
  0.00000000E+00  0.00000000E+00  0.00000000E+00
  0.00000000E+00  0.00000000E+00  0.00000000E+00
  0.00000000E+00  0.00000000E+00  0.00000000E+00
  0.00000000E+00  0.00000000E+00  0.00000000E+00
  0.00000000E+00  0.00000000E+00  0.00000000E+00
