2 Te4                                   
   1.00000000000000     
     7.7370798254562319   -0.0228326018847150   -0.0155669943581846
    -1.9441603756553749    3.3673650373005861   -0.0015257486918638
     0.2398554681038729    0.1176017980873555   51.1656557736783597
   Mn   Fe   Sb   S 
     1     1     4     8
Direct
  0.3333330000000032  0.3333330000000032  0.3333330000000032
  0.8333330000000032  0.3333330000000032  0.3333330000000032
  0.9968577154985023  0.9967895299362114  0.3972002270257458
  0.5007321904327025  0.0008236834698463  0.3975124065815216
  0.1659348095672946  0.6658433165301506  0.2691545934184822
  0.6698092845014945  0.6698774700637854  0.2694667729742581
  0.3327805742735959  0.3328207184389658  0.4253786990632595
  0.8277280953723950  0.3277721607195139  0.4254666766619380
  0.3338854257264106  0.3338452815610407  0.2412873009367397
  0.8389379046276114  0.3388938392804925  0.2411993233380613
  0.9968516563789022  0.9972544493764780  0.3062405216054500
  0.5099709871320712  0.0102857361494059  0.3064868059920260
  0.1566960128679255  0.6563812638505906  0.3601801940079779
  0.6698153436210946  0.6694125506235188  0.3604264783945539
 
  0.00000000E+00  0.00000000E+00  0.00000000E+00
  0.00000000E+00  0.00000000E+00  0.00000000E+00
  0.00000000E+00  0.00000000E+00  0.00000000E+00
  0.00000000E+00  0.00000000E+00  0.00000000E+00
  0.00000000E+00  0.00000000E+00  0.00000000E+00
  0.00000000E+00  0.00000000E+00  0.00000000E+00
  0.00000000E+00  0.00000000E+00  0.00000000E+00
  0.00000000E+00  0.00000000E+00  0.00000000E+00
  0.00000000E+00  0.00000000E+00  0.00000000E+00
  0.00000000E+00  0.00000000E+00  0.00000000E+00
  0.00000000E+00  0.00000000E+00  0.00000000E+00
  0.00000000E+00  0.00000000E+00  0.00000000E+00
  0.00000000E+00  0.00000000E+00  0.00000000E+00
  0.00000000E+00  0.00000000E+00  0.00000000E+00
