2 Te4                                   
   1.00000000000000     
     8.5775528548673190    0.0027139407435851   -0.0001871193571757
    -2.1432139529350187    3.7120509985143091    0.0000310291852272
    -0.0030298496372235   -0.0013886841888131   41.7882602646595558
   Mn   Co   Sb   Te
     1     1     4     8
Direct
  0.3333330000000032  0.3333330000000032  0.3333330000000032
  0.8333330000000032  0.3333330000000032  0.3333330000000032
  0.9981926797952148  0.9981935678606011  0.4197990212141179
  0.5013047632159341  0.0013048801201878  0.4190283746571128
  0.1653622367840628  0.6653621198798091  0.2476386253428910
  0.6684743202047820  0.6684734321393957  0.2468679787858860
  0.3366706151278205  0.3366709157216971  0.4594748490972124
  0.8296520126468894  0.3296525927160301  0.4602424950335663
  0.3299953848721859  0.3299950842783094  0.2071911509027870
  0.8370139873531171  0.3370134072839763  0.2064235049664330
  0.9903287684539137  0.9903326314796314  0.2977095798033497
  0.5081038543542201  0.0081091400674935  0.2963326043970038
  0.1585631456457768  0.6585578599325034  0.3703343956030001
  0.6763382315460831  0.6763343685203654  0.3689574201966542
 
  0.00000000E+00  0.00000000E+00  0.00000000E+00
  0.00000000E+00  0.00000000E+00  0.00000000E+00
  0.00000000E+00  0.00000000E+00  0.00000000E+00
  0.00000000E+00  0.00000000E+00  0.00000000E+00
  0.00000000E+00  0.00000000E+00  0.00000000E+00
  0.00000000E+00  0.00000000E+00  0.00000000E+00
  0.00000000E+00  0.00000000E+00  0.00000000E+00
  0.00000000E+00  0.00000000E+00  0.00000000E+00
  0.00000000E+00  0.00000000E+00  0.00000000E+00
  0.00000000E+00  0.00000000E+00  0.00000000E+00
  0.00000000E+00  0.00000000E+00  0.00000000E+00
  0.00000000E+00  0.00000000E+00  0.00000000E+00
  0.00000000E+00  0.00000000E+00  0.00000000E+00
  0.00000000E+00  0.00000000E+00  0.00000000E+00
