2 Te4                                   
   1.00000000000000     
     8.5371111057937377    0.0161880675909415   -0.0048992350881816
    -2.1272898847603718    3.6824068216599994   -0.0007240733153339
    -0.1053750406026672   -0.0667708542691234   42.2857234925208303
   Mn   Ru   Pb   Te
     1     1     4     8
Direct
  0.3333330000000032  0.3333330000000032  0.3333330000000032
  0.8333330000000032  0.3333330000000032  0.3333330000000032
  0.9954770820036990  0.9953757687645353  0.4281811823770661
  0.5031765637975801  0.0034032659036719  0.4267173007913018
  0.1634904362024170  0.6632637340963249  0.2399496992087020
  0.6711899179962978  0.6712912312354615  0.2384858176229379
  0.3369102139316196  0.3369684491323902  0.4680779813180407
  0.8291455616539212  0.3289294609525000  0.4698807836105449
  0.3297557860683868  0.3296975508676163  0.1985880186819587
  0.8375204383460852  0.3377365390475064  0.1967852163894545
  0.9766663912346069  0.9767967749512780  0.3012972932754650
  0.5170912958028009  0.0171412489735683  0.2998688807715753
  0.1495757041971961  0.6495257510264285  0.3667981192284286
  0.6900006087653899  0.6898702250487188  0.3653697067245389
 
  0.00000000E+00  0.00000000E+00  0.00000000E+00
  0.00000000E+00  0.00000000E+00  0.00000000E+00
  0.00000000E+00  0.00000000E+00  0.00000000E+00
  0.00000000E+00  0.00000000E+00  0.00000000E+00
  0.00000000E+00  0.00000000E+00  0.00000000E+00
  0.00000000E+00  0.00000000E+00  0.00000000E+00
  0.00000000E+00  0.00000000E+00  0.00000000E+00
  0.00000000E+00  0.00000000E+00  0.00000000E+00
  0.00000000E+00  0.00000000E+00  0.00000000E+00
  0.00000000E+00  0.00000000E+00  0.00000000E+00
  0.00000000E+00  0.00000000E+00  0.00000000E+00
  0.00000000E+00  0.00000000E+00  0.00000000E+00
  0.00000000E+00  0.00000000E+00  0.00000000E+00
  0.00000000E+00  0.00000000E+00  0.00000000E+00
