2 Te4                                   
   1.00000000000000     
     7.7749091353935116    0.0073352538781456   -0.0333070498308073
    -1.9405528660237286    3.3614113071629013   -0.0002667777626259
    -0.1862584574470797   -0.1115621713222851   50.8940174014523237
   Mn   Cr   Pb   S 
     1     1     4     8
Direct
  0.3333330000000032  0.3333330000000032  0.3333330000000032
  0.8333330000000032  0.3333330000000032  0.3333330000000032
 -0.0004600979063151 -0.0005680313565113  0.4013455918822033
  0.4986169288862503  0.9986286301654698  0.4020195156821970
  0.1680500711137465  0.6680383698345270  0.2646474843178069
  0.6671270979063121  0.6672350313565081  0.2653214081178006
  0.3302535786175449  0.3303406734022982  0.4312949493080873
  0.8378534610381445  0.3378195592856658  0.4308993439612772
  0.3364124213824615  0.3363253265977082  0.2353710506919120
  0.8288125389618619  0.3288464407143335  0.2357666560387222
  0.9844039290407368  0.9844416729583521  0.3086017981432617
  0.5146944264068577  0.0147599608120608  0.3077636652822167
  0.1519725735931390  0.6519070391879360  0.3589033347177872
  0.6822630709592600  0.6822253270416447  0.3580652018567422
 
  0.00000000E+00  0.00000000E+00  0.00000000E+00
  0.00000000E+00  0.00000000E+00  0.00000000E+00
  0.00000000E+00  0.00000000E+00  0.00000000E+00
  0.00000000E+00  0.00000000E+00  0.00000000E+00
  0.00000000E+00  0.00000000E+00  0.00000000E+00
  0.00000000E+00  0.00000000E+00  0.00000000E+00
  0.00000000E+00  0.00000000E+00  0.00000000E+00
  0.00000000E+00  0.00000000E+00  0.00000000E+00
  0.00000000E+00  0.00000000E+00  0.00000000E+00
  0.00000000E+00  0.00000000E+00  0.00000000E+00
  0.00000000E+00  0.00000000E+00  0.00000000E+00
  0.00000000E+00  0.00000000E+00  0.00000000E+00
  0.00000000E+00  0.00000000E+00  0.00000000E+00
  0.00000000E+00  0.00000000E+00  0.00000000E+00
