2 Te4                                   
   1.00000000000000     
     8.4578458308437892   -0.0034116382809610   -0.0088861283566129
    -2.1159406283565430    3.6639026779766937    0.0006991571359261
    -0.0406386583790098   -0.0138962281385210   42.9545262487986932
   Mn   Cr   Sn   Te
     1     1     4     8
Direct
  0.3333330000000032  0.3333330000000032  0.3333330000000032
  0.8333330000000032  0.3333330000000032  0.3333330000000032
  0.9977251566445886  0.9976380216424484  0.4219415493005657
  0.5001790891168242  0.0007134708142303  0.4228035792535118
  0.1664879108831727  0.6659535291857666  0.2438634207464922
  0.6689418433554082  0.6690289783575484  0.2447254506994382
  0.3322476042995486  0.3324116026326461  0.4611744352202040
  0.8342543604946624  0.3338802212159850  0.4613756506783656
  0.3344183957004578  0.3342543973673532  0.2054915647797954
  0.8324116395053440  0.3327857787840214  0.2052903493216338
  0.9929990777070202  0.9935182124205602  0.2978091016278902
  0.5067236328986233  0.0068834742616085  0.2971386036015154
  0.1599433671013736  0.6597835257383882  0.3695283963984884
  0.6736679222929766  0.6731487875794366  0.3688578983721137
 
  0.00000000E+00  0.00000000E+00  0.00000000E+00
  0.00000000E+00  0.00000000E+00  0.00000000E+00
  0.00000000E+00  0.00000000E+00  0.00000000E+00
  0.00000000E+00  0.00000000E+00  0.00000000E+00
  0.00000000E+00  0.00000000E+00  0.00000000E+00
  0.00000000E+00  0.00000000E+00  0.00000000E+00
  0.00000000E+00  0.00000000E+00  0.00000000E+00
  0.00000000E+00  0.00000000E+00  0.00000000E+00
  0.00000000E+00  0.00000000E+00  0.00000000E+00
  0.00000000E+00  0.00000000E+00  0.00000000E+00
  0.00000000E+00  0.00000000E+00  0.00000000E+00
  0.00000000E+00  0.00000000E+00  0.00000000E+00
  0.00000000E+00  0.00000000E+00  0.00000000E+00
  0.00000000E+00  0.00000000E+00  0.00000000E+00
