2 Te4                                   
   1.00000000000000     
     8.0418084771608456    0.2248438084382296    0.0176413038969276
    -1.9130912690584800    3.3135405098475017   -0.0000036359922421
     0.1847658073906860    0.1065901768513119   49.1490390141930646
   Mn   Mo   Sb   S 
     1     1     4     8
Direct
  0.3333330000000032  0.3333330000000032  0.3333330000000032
  0.8333330000000032  0.3333330000000032  0.3333330000000032
  0.9891153725100397  0.9891152517569999  0.4035707316673022
  0.4742135825369597  0.9742147147429573  0.3994218650921849
  0.1924534174630372  0.6924522852570395  0.2672451349078190
  0.6775516274899571  0.6775517482429969  0.2630962683327017
  0.3202522472876893  0.3202521245704194  0.4285574627003348
  0.8607213974159301  0.3607201684154668  0.4327394498491384
  0.3464137527123171  0.3464138754295870  0.2381085372996646
  0.8059446025840763  0.3059458315845396  0.2339265501508609
  0.0017052230093184  0.0017053087602571  0.3068760341040412
  0.4618682278272817  0.9618689487046658  0.3018054539905103
  0.2047987721727151  0.7047980512953310  0.3648615460094936
  0.6649617769906783  0.6649616912397397  0.3597909658959627
 
  0.00000000E+00  0.00000000E+00  0.00000000E+00
  0.00000000E+00  0.00000000E+00  0.00000000E+00
  0.00000000E+00  0.00000000E+00  0.00000000E+00
  0.00000000E+00  0.00000000E+00  0.00000000E+00
  0.00000000E+00  0.00000000E+00  0.00000000E+00
  0.00000000E+00  0.00000000E+00  0.00000000E+00
  0.00000000E+00  0.00000000E+00  0.00000000E+00
  0.00000000E+00  0.00000000E+00  0.00000000E+00
  0.00000000E+00  0.00000000E+00  0.00000000E+00
  0.00000000E+00  0.00000000E+00  0.00000000E+00
  0.00000000E+00  0.00000000E+00  0.00000000E+00
  0.00000000E+00  0.00000000E+00  0.00000000E+00
  0.00000000E+00  0.00000000E+00  0.00000000E+00
  0.00000000E+00  0.00000000E+00  0.00000000E+00
