2 Te4                                   
   1.00000000000000     
     8.6647487190450008    0.0792630471884644    0.0386007111535640
    -2.1318663521938457    3.6925052309666748   -0.0000044512532976
     0.1817732155185384    0.1048988116819993   41.3768537342155795
   Mn   Cr   Sb   Te
     1     1     4     8
Direct
  0.3333330000000032  0.3333330000000032  0.3333330000000032
  0.8333330000000032  0.3333330000000032  0.3333330000000032
  0.9947495619404864  0.9947495744113322  0.4223865689247773
  0.4932662756949597  0.9932664342187676  0.4215820443729604
  0.1734007243050371  0.6734005657812292  0.2450849556270435
  0.6719174380595104  0.6719174255886646  0.2442804310752266
  0.3340537665968928  0.3340539564846404  0.4620966570052815
  0.8351823087225125  0.3351824499309619  0.4631030999008724
  0.3326122334031136  0.3326120435153660  0.2045693429947178
  0.8314836912774939  0.3314835500690445  0.2035629000991269
  0.9886926590055739  0.9886911695095489  0.2962744859693690
  0.4860406268924274  0.9860396872531125  0.2933189684956635
  0.1806263731075694  0.6806273127468843  0.3733480315043404
  0.6779743409944229  0.6779758304904479  0.3703925140306349
 
  0.00000000E+00  0.00000000E+00  0.00000000E+00
  0.00000000E+00  0.00000000E+00  0.00000000E+00
  0.00000000E+00  0.00000000E+00  0.00000000E+00
  0.00000000E+00  0.00000000E+00  0.00000000E+00
  0.00000000E+00  0.00000000E+00  0.00000000E+00
  0.00000000E+00  0.00000000E+00  0.00000000E+00
  0.00000000E+00  0.00000000E+00  0.00000000E+00
  0.00000000E+00  0.00000000E+00  0.00000000E+00
  0.00000000E+00  0.00000000E+00  0.00000000E+00
  0.00000000E+00  0.00000000E+00  0.00000000E+00
  0.00000000E+00  0.00000000E+00  0.00000000E+00
  0.00000000E+00  0.00000000E+00  0.00000000E+00
  0.00000000E+00  0.00000000E+00  0.00000000E+00
  0.00000000E+00  0.00000000E+00  0.00000000E+00
