2 Te4                                   
   1.00000000000000     
     8.0669069294062510    0.0858500119799059   -0.0099854015782979
    -1.9795453491628729    3.4286492069088639   -0.0000472032814359
    -0.0603282529618544   -0.0360981696174071   47.8213108211589599
   Mn   Nb   Pb   Se
     1     1     4     8
Direct
  0.3333330000000032  0.3333330000000032  0.3333330000000032
  0.8333330000000032  0.3333330000000032  0.3333330000000032
  0.0012567806498655  0.0012786325110504  0.4178118322558239
  0.4975751718442382  0.9975873336168424  0.4188109214106019
  0.1690918281557585  0.6690796663831544  0.2478560785894019
  0.6654102193501313  0.6653883674889466  0.2488551677441872
  0.3310321445844094  0.3310748759738090  0.4522190557999656
  0.8324505604882640  0.3325009010330275  0.4512670416138854
  0.3356338554155970  0.3355911240261975  0.2144469442000406
  0.8342154395117424  0.3341650989669789  0.2153989583861139
  0.9754717680092659  0.9754405981811480  0.3018723725829229
  0.5120807915986159  0.0120581626641568  0.3047891020249773
  0.1545862084013807  0.6546088373358327  0.3618778979750266
  0.6911952319907237  0.6912264018188488  0.3647946274170810
 
  0.00000000E+00  0.00000000E+00  0.00000000E+00
  0.00000000E+00  0.00000000E+00  0.00000000E+00
  0.00000000E+00  0.00000000E+00  0.00000000E+00
  0.00000000E+00  0.00000000E+00  0.00000000E+00
  0.00000000E+00  0.00000000E+00  0.00000000E+00
  0.00000000E+00  0.00000000E+00  0.00000000E+00
  0.00000000E+00  0.00000000E+00  0.00000000E+00
  0.00000000E+00  0.00000000E+00  0.00000000E+00
  0.00000000E+00  0.00000000E+00  0.00000000E+00
  0.00000000E+00  0.00000000E+00  0.00000000E+00
  0.00000000E+00  0.00000000E+00  0.00000000E+00
  0.00000000E+00  0.00000000E+00  0.00000000E+00
  0.00000000E+00  0.00000000E+00  0.00000000E+00
  0.00000000E+00  0.00000000E+00  0.00000000E+00
