2 Te4                                   
   1.00000000000000     
     8.0391562581708591   -0.0025444438213413   -0.0000909093534128
    -2.0109045910764864    3.4769187639463235   -0.0004420870039139
     0.1218576799569736    0.0671559951991423   47.6195574068883118
   Mn   Mo   Bi   S 
     1     1     4     8
Direct
  0.3333330000000032  0.3333330000000032  0.3333330000000032
  0.8333330000000032  0.3333330000000032  0.3333330000000032
 -0.0006415689564805 -0.0003327423320577  0.4035939125164345
  0.4985887994527911 -0.0010062592980877  0.4048671480590363
  0.1680782005472055  0.6676732592980845  0.2617998519409676
  0.6673085689564773  0.6669997423320544  0.2630730874835694
  0.3318781859996011  0.3316969041090865  0.4340430698990317
  0.8306265163828412  0.3303901164581282  0.4338715195743982
  0.3347878140004053  0.3349690958909199  0.2326229301009676
  0.8360394836171652  0.3362758835418782  0.2327944804256009
 -0.0075600208198809 -0.0072982797573758  0.3061499926415415
  0.5096214925115665  0.0095204741309525  0.3054384020284475
  0.1570455074884304  0.6571465258690442  0.3612285979715564
  0.6742270208198777  0.6739652797573723  0.3605170073584624
 
  0.00000000E+00  0.00000000E+00  0.00000000E+00
  0.00000000E+00  0.00000000E+00  0.00000000E+00
  0.00000000E+00  0.00000000E+00  0.00000000E+00
  0.00000000E+00  0.00000000E+00  0.00000000E+00
  0.00000000E+00  0.00000000E+00  0.00000000E+00
  0.00000000E+00  0.00000000E+00  0.00000000E+00
  0.00000000E+00  0.00000000E+00  0.00000000E+00
  0.00000000E+00  0.00000000E+00  0.00000000E+00
  0.00000000E+00  0.00000000E+00  0.00000000E+00
  0.00000000E+00  0.00000000E+00  0.00000000E+00
  0.00000000E+00  0.00000000E+00  0.00000000E+00
  0.00000000E+00  0.00000000E+00  0.00000000E+00
  0.00000000E+00  0.00000000E+00  0.00000000E+00
  0.00000000E+00  0.00000000E+00  0.00000000E+00
