2 Te4                                   
   1.00000000000000     
     8.5309725975714912   -0.0095611939645853   -0.0028832918808572
    -2.1371152821343307    3.7006191226026153    0.0007263983102956
    -0.1382736365364086   -0.0717026108852165   42.1812733684784149
   Mn   V    Pb   Te
     1     1     4     8
Direct
  0.3333330000000032  0.3333330000000032  0.3333330000000032
  0.8333330000000032  0.3333330000000032  0.3333330000000032
  0.9977580628444782  0.9978564820509019  0.4297697780899242
  0.4992911981499792 -0.0006650904418681  0.4298197008266689
  0.1673758018500175  0.6673320904418648  0.2368472991733349
  0.6689089371555186  0.6688105179490949  0.2368972219100798
  0.3334706489167923  0.3333751876186454  0.4716797788939531
  0.8325661370718315  0.3324989769920400  0.4718361103803939
  0.3331953510832141  0.3332908123813610  0.1949862211060462
  0.8340998629281750  0.3341670230079665  0.1948298896196057
  0.9898956786296782  0.9898301487505813  0.2974797859310215
  0.5058534173142413  0.0059309559886491  0.2977266063991772
  0.1608135826857556  0.6607360440113481  0.3689403936008267
  0.6767713213703186  0.6768368512494155  0.3691872140689824
 
  0.00000000E+00  0.00000000E+00  0.00000000E+00
  0.00000000E+00  0.00000000E+00  0.00000000E+00
  0.00000000E+00  0.00000000E+00  0.00000000E+00
  0.00000000E+00  0.00000000E+00  0.00000000E+00
  0.00000000E+00  0.00000000E+00  0.00000000E+00
  0.00000000E+00  0.00000000E+00  0.00000000E+00
  0.00000000E+00  0.00000000E+00  0.00000000E+00
  0.00000000E+00  0.00000000E+00  0.00000000E+00
  0.00000000E+00  0.00000000E+00  0.00000000E+00
  0.00000000E+00  0.00000000E+00  0.00000000E+00
  0.00000000E+00  0.00000000E+00  0.00000000E+00
  0.00000000E+00  0.00000000E+00  0.00000000E+00
  0.00000000E+00  0.00000000E+00  0.00000000E+00
  0.00000000E+00  0.00000000E+00  0.00000000E+00
