2 Te4                                   
   1.00000000000000     
     8.4317326839897380    0.0622324715050408   -0.0089064244752641
    -2.0809869719895020    3.6043962366544209   -0.0000009446554220
    -0.0552433566517874   -0.0318880377814102   43.6029291783209914
   Mn   Cu   Sn   Te
     1     1     4     8
Direct
  0.3333330000000032  0.3333330000000032  0.3333330000000032
  0.8333330000000032  0.3333330000000032  0.3333330000000032
  0.9982085868865842  0.9982142317208846  0.4196098691953614
  0.4997982092369438  0.9997998996740791  0.4158527785824805
  0.1668687907630531  0.6668671003259177  0.2508142214175234
  0.6684584131134126  0.6684527682791122  0.2470571308046424
  0.3386434509086899  0.3386414276095273  0.4559277558288126
  0.8265395398027208  0.3265384588910123  0.4573386043396210
  0.3280225490913165  0.3280245723904791  0.2107382441711867
  0.8401264601972857  0.3401275411089941  0.2093273956603783
  0.9848117140414252  0.9848115010129564  0.2999961710619630
  0.5036506507299876  0.0036546876445468  0.2972568906116062
  0.1630163492700093  0.6630123123554501  0.3694101093883977
  0.6818552859585716  0.6818554989870474  0.3666708289380409
 
  0.00000000E+00  0.00000000E+00  0.00000000E+00
  0.00000000E+00  0.00000000E+00  0.00000000E+00
  0.00000000E+00  0.00000000E+00  0.00000000E+00
  0.00000000E+00  0.00000000E+00  0.00000000E+00
  0.00000000E+00  0.00000000E+00  0.00000000E+00
  0.00000000E+00  0.00000000E+00  0.00000000E+00
  0.00000000E+00  0.00000000E+00  0.00000000E+00
  0.00000000E+00  0.00000000E+00  0.00000000E+00
  0.00000000E+00  0.00000000E+00  0.00000000E+00
  0.00000000E+00  0.00000000E+00  0.00000000E+00
  0.00000000E+00  0.00000000E+00  0.00000000E+00
  0.00000000E+00  0.00000000E+00  0.00000000E+00
  0.00000000E+00  0.00000000E+00  0.00000000E+00
  0.00000000E+00  0.00000000E+00  0.00000000E+00
