2 Te4                                   
   1.00000000000000     
     7.6597641119046234    0.0199395901915768   -0.0256218994125551
    -1.9063075941870926    3.3017850532539756    0.0000034287922729
     0.4168899492602194    0.2407491893086565   52.5386833715293804
   Mn   Ag   Sn   S 
     1     1     4     8
Direct
  0.3333330000000032  0.3333330000000032  0.3333330000000032
  0.8333330000000032  0.3333330000000032  0.3333330000000032
  0.9906918853816858  0.9906925936700975  0.3964920587453978
  0.4912028011810695  0.9912031583207171  0.3949653163006902
  0.1754641988189274  0.6754638416792796  0.2717016836993137
  0.6759751146183109  0.6759744063298992  0.2701749412546061
  0.3314181807718307  0.3314175254298463  0.4223023648826645
  0.8133063662945549  0.3133047314731263  0.4227104810118476
  0.3352478192281757  0.3352484745701602  0.2443636351173348
  0.8533596337054515  0.3533612685268802  0.2439555189881517
  0.0214608332447901  0.0214594775204333  0.3035303675729347
  0.4882268823571576  0.9882279662345701  0.3050055958717282
  0.1784401176428393  0.6784390337654267  0.3616614041282757
  0.6452061667552066  0.6452075224795635  0.3631366324270692
 
  0.00000000E+00  0.00000000E+00  0.00000000E+00
  0.00000000E+00  0.00000000E+00  0.00000000E+00
  0.00000000E+00  0.00000000E+00  0.00000000E+00
  0.00000000E+00  0.00000000E+00  0.00000000E+00
  0.00000000E+00  0.00000000E+00  0.00000000E+00
  0.00000000E+00  0.00000000E+00  0.00000000E+00
  0.00000000E+00  0.00000000E+00  0.00000000E+00
  0.00000000E+00  0.00000000E+00  0.00000000E+00
  0.00000000E+00  0.00000000E+00  0.00000000E+00
  0.00000000E+00  0.00000000E+00  0.00000000E+00
  0.00000000E+00  0.00000000E+00  0.00000000E+00
  0.00000000E+00  0.00000000E+00  0.00000000E+00
  0.00000000E+00  0.00000000E+00  0.00000000E+00
  0.00000000E+00  0.00000000E+00  0.00000000E+00
