2 Te4                                   
   1.00000000000000     
     8.2111356631294292   -0.0051349939530466   -0.0039818900477762
    -2.0550084197230629    3.5593792490584737   -0.0000041636343440
    -0.0195930966223909   -0.0113606747588470   45.5502137468971142
   Mn   Zn   Bi   Se
     1     1     4     8
Direct
  0.3333330000000032  0.3333330000000032  0.3333330000000032
  0.8333330000000032  0.3333330000000032  0.3333330000000032
  0.9989403202842733  0.9989367602800777  0.4096353434048086
  0.5008608970247914  0.0008527254013681  0.4092511795885153
  0.1658061029752053  0.6658142745986289  0.2574158204114886
  0.6677266797157235  0.6677302397199191  0.2570316565951953
  0.3354227456002154  0.3354207115223111  0.4443483255905374
  0.8313097652353031  0.3313099268021064  0.4447274897643524
  0.3312432543997910  0.3312452884776954  0.2223176744094619
  0.8353562347647033  0.3353560731979001  0.2219385102356469
  0.9950054592120212  0.9950022394660326  0.3025377390655511
  0.5059958111957448  0.0059951947849039  0.3021023715501787
  0.1606711888042520  0.6606718052150929  0.3645646284498252
  0.6716615407879756  0.6716647605339642  0.3641292609344528
 
  0.00000000E+00  0.00000000E+00  0.00000000E+00
  0.00000000E+00  0.00000000E+00  0.00000000E+00
  0.00000000E+00  0.00000000E+00  0.00000000E+00
  0.00000000E+00  0.00000000E+00  0.00000000E+00
  0.00000000E+00  0.00000000E+00  0.00000000E+00
  0.00000000E+00  0.00000000E+00  0.00000000E+00
  0.00000000E+00  0.00000000E+00  0.00000000E+00
  0.00000000E+00  0.00000000E+00  0.00000000E+00
  0.00000000E+00  0.00000000E+00  0.00000000E+00
  0.00000000E+00  0.00000000E+00  0.00000000E+00
  0.00000000E+00  0.00000000E+00  0.00000000E+00
  0.00000000E+00  0.00000000E+00  0.00000000E+00
  0.00000000E+00  0.00000000E+00  0.00000000E+00
  0.00000000E+00  0.00000000E+00  0.00000000E+00
