2 Te4                                   
   1.00000000000000     
     8.0298097871935283    0.0079532077934265   -0.0080900134389278
    -2.0040089278561362    3.4709236059528590   -0.0000047245310717
    -0.0275854996284157   -0.0160035579591097   47.7213472011026170
   Mn   Ni   Sb   Se
     1     1     4     8
Direct
  0.3333330000000032  0.3333330000000032  0.3333330000000032
  0.8333330000000032  0.3333330000000032  0.3333330000000032
  0.9966371733955335  0.9966381898514820  0.4037323166570091
  0.5020465860006559  0.0020419806487764  0.4038370605624345
  0.1646204139993410  0.6646250193512205  0.2628299394375694
  0.6700298266044633  0.6700288101485148  0.2629346833429948
  0.3388343474455605  0.3387975770431121  0.4361381224537887
  0.8277490216904067  0.3277759278410302  0.4365773492218844
  0.3278316525544459  0.3278684229568943  0.2305278775462105
  0.8389169783095998  0.3388900721589762  0.2300886507781150
  0.9870537313832045  0.9870582979774550  0.3048902375650292
  0.5134844016317140  0.0134668880214034  0.3039235810228892
  0.1531825983682825  0.6532001119785934  0.3627434189771147
  0.6796132686167923  0.6796087020225418  0.3617767624349747
 
  0.00000000E+00  0.00000000E+00  0.00000000E+00
  0.00000000E+00  0.00000000E+00  0.00000000E+00
  0.00000000E+00  0.00000000E+00  0.00000000E+00
  0.00000000E+00  0.00000000E+00  0.00000000E+00
  0.00000000E+00  0.00000000E+00  0.00000000E+00
  0.00000000E+00  0.00000000E+00  0.00000000E+00
  0.00000000E+00  0.00000000E+00  0.00000000E+00
  0.00000000E+00  0.00000000E+00  0.00000000E+00
  0.00000000E+00  0.00000000E+00  0.00000000E+00
  0.00000000E+00  0.00000000E+00  0.00000000E+00
  0.00000000E+00  0.00000000E+00  0.00000000E+00
  0.00000000E+00  0.00000000E+00  0.00000000E+00
  0.00000000E+00  0.00000000E+00  0.00000000E+00
  0.00000000E+00  0.00000000E+00  0.00000000E+00
