2 Te4                                   
   1.00000000000000     
     8.7172219175639611    0.0283457090540945   -0.0050691634833084
    -2.1665783581238371    3.7503328651609236    0.0020836650405873
    -0.0696111930852624   -0.0290951798394372   40.6301421555572873
   Mn   Zr   Sb   Te
     1     1     4     8
Direct
  0.3333330000000032  0.3333330000000032  0.3333330000000032
  0.8333330000000032  0.3333330000000032  0.3333330000000032
  0.9964132406542028  0.9975885910451391  0.4248751499138412
  0.4941945586743699  0.9952945910693092  0.4307261988015663
  0.1724724413256269  0.6713724089306876  0.2359408011984376
  0.6702537593457940  0.6690784089548577  0.2417918500861627
  0.3310359972178998  0.3300745361829839  0.4684063155221185
  0.8395555938777445  0.3392457429414793  0.4664565227191615
  0.3356300027821066  0.3365914638170225  0.1982596844778809
  0.8271104061222619  0.3274202570585271  0.2002094772808307
 -0.0021953979806977 -0.0013550924639441  0.2916411970044136
  0.4949641720777221  0.9952271881771685  0.2930847221782035
  0.1717028279222747  0.6714398118228283  0.3735822778218004
  0.6688623979806941  0.6680220924639406  0.3750258029955903
 
  0.00000000E+00  0.00000000E+00  0.00000000E+00
  0.00000000E+00  0.00000000E+00  0.00000000E+00
  0.00000000E+00  0.00000000E+00  0.00000000E+00
  0.00000000E+00  0.00000000E+00  0.00000000E+00
  0.00000000E+00  0.00000000E+00  0.00000000E+00
  0.00000000E+00  0.00000000E+00  0.00000000E+00
  0.00000000E+00  0.00000000E+00  0.00000000E+00
  0.00000000E+00  0.00000000E+00  0.00000000E+00
  0.00000000E+00  0.00000000E+00  0.00000000E+00
  0.00000000E+00  0.00000000E+00  0.00000000E+00
  0.00000000E+00  0.00000000E+00  0.00000000E+00
  0.00000000E+00  0.00000000E+00  0.00000000E+00
  0.00000000E+00  0.00000000E+00  0.00000000E+00
  0.00000000E+00  0.00000000E+00  0.00000000E+00
