2 Te4                                   
   1.00000000000000     
     7.9123713155957738   -0.0026769684038516   -0.0063591297419179
    -1.9792529770790173    3.4278794680930837   -0.0000382656013826
    -0.0182934098391259   -0.0111017105800270   49.0753920981516671
   Mn   Zn   Bi   S 
     1     1     4     8
Direct
  0.3333330000000032  0.3333330000000032  0.3333330000000032
  0.8333330000000032  0.3333330000000032  0.3333330000000032
  0.9984699234736252  0.9984650500112922  0.4008916393195681
  0.5010520870193391  0.0010568477792441  0.4009464166187290
  0.1656149129806576  0.6656101522207528  0.2657205833812749
  0.6681970765263716  0.6682019499887046  0.2657753606804358
  0.3354947554431845  0.3354967702270507  0.4311209235787029
  0.8312015306661019  0.3311922062079918  0.4313647996893521
  0.3311712445568219  0.3311692297729557  0.2355450764212965
  0.8354644693339045  0.3354737937920146  0.2353012003106472
  0.9944959546313611  0.9944774410563652  0.3060846532959286
  0.5067294652810365  0.0067332537558507  0.3058734322762161
  0.1599375347189601  0.6599337462441461  0.3607935677237878
  0.6721710453686357  0.6721895589436316  0.3605823467040753
 
  0.00000000E+00  0.00000000E+00  0.00000000E+00
  0.00000000E+00  0.00000000E+00  0.00000000E+00
  0.00000000E+00  0.00000000E+00  0.00000000E+00
  0.00000000E+00  0.00000000E+00  0.00000000E+00
  0.00000000E+00  0.00000000E+00  0.00000000E+00
  0.00000000E+00  0.00000000E+00  0.00000000E+00
  0.00000000E+00  0.00000000E+00  0.00000000E+00
  0.00000000E+00  0.00000000E+00  0.00000000E+00
  0.00000000E+00  0.00000000E+00  0.00000000E+00
  0.00000000E+00  0.00000000E+00  0.00000000E+00
  0.00000000E+00  0.00000000E+00  0.00000000E+00
  0.00000000E+00  0.00000000E+00  0.00000000E+00
  0.00000000E+00  0.00000000E+00  0.00000000E+00
  0.00000000E+00  0.00000000E+00  0.00000000E+00
