2 Te4                                   
   1.00000000000000     
     7.5772088687736918   -0.0121778668030773   -0.0212626947543220
    -1.8995747038904218    3.2899373282923845   -0.0000274458308155
    -0.0953494207653841   -0.0553837084367849   53.4343067676151122
   Mn   Co   Sn   S 
     1     1     4     8
Direct
  0.3333330000000032  0.3333330000000032  0.3333330000000032
  0.8333330000000032  0.3333330000000032  0.3333330000000032
  0.9972726627851269  0.9972733099489620  0.3944817437990331
  0.4988527067071251  0.9988484954196437  0.3943927224153387
  0.1678142932928717  0.6678185045803460  0.2722742775846652
  0.6693943372148699  0.6693936900510348  0.2721852562009708
  0.3270102109863618  0.3269976116624450  0.4210502725514408
  0.8390274309329355  0.3390208585198233  0.4210344279031032
  0.3396557890136446  0.3396683883375614  0.2456157274485586
  0.8276385690670709  0.3276451414801831  0.2456315720968961
  0.9819362486377191  0.9819450374274575  0.3084220993652280
  0.5169543534652086  0.0169433192613185  0.3071916158419862
  0.1497126465347883  0.6497236807386785  0.3594753841580177
  0.6847307513622777  0.6847219625725393  0.3582449006347759
 
  0.00000000E+00  0.00000000E+00  0.00000000E+00
  0.00000000E+00  0.00000000E+00  0.00000000E+00
  0.00000000E+00  0.00000000E+00  0.00000000E+00
  0.00000000E+00  0.00000000E+00  0.00000000E+00
  0.00000000E+00  0.00000000E+00  0.00000000E+00
  0.00000000E+00  0.00000000E+00  0.00000000E+00
  0.00000000E+00  0.00000000E+00  0.00000000E+00
  0.00000000E+00  0.00000000E+00  0.00000000E+00
  0.00000000E+00  0.00000000E+00  0.00000000E+00
  0.00000000E+00  0.00000000E+00  0.00000000E+00
  0.00000000E+00  0.00000000E+00  0.00000000E+00
  0.00000000E+00  0.00000000E+00  0.00000000E+00
  0.00000000E+00  0.00000000E+00  0.00000000E+00
  0.00000000E+00  0.00000000E+00  0.00000000E+00
