2 Te4                                   
   1.00000000000000     
     8.1979096770111521    0.1404546449846383    0.2657323843501982
    -1.9885944631491046    3.4410784632734059   -0.0002240127883292
     1.3375664993551557    0.7685455694567923   46.7697772909669496
   Mn   Cu   Pb   Se
     1     1     4     8
Direct
  0.3333330000000032  0.3333330000000032  0.3333330000000032
  0.8333330000000032  0.3333330000000032  0.3333330000000032
  0.0071354780193450  0.0072311543841868  0.4118219863990777
  0.5119820314489639  0.0121456292958015  0.4092089873723069
  0.1546849685510329  0.6545213707041954  0.2574580126276970
  0.6595315219806518  0.6594358456158099  0.2548450136009262
  0.3321253333557393  0.3318641134538456  0.4435683351574330
  0.8235555228244933  0.3235674871672427  0.4455569043544051
  0.3345406666442671  0.3348018865461608  0.2230976648425662
  0.8431104771755131  0.3430985128327638  0.2211090956455942
  0.9649608737848459  0.9650477550307066  0.3082789443871172
  0.4690534726077200  0.9687864945416225  0.3022168601711084
  0.1976135273922767  0.6978805054583743  0.3644501398288955
  0.7017061262151509  0.7016192449692902  0.3583880556128867
 
  0.00000000E+00  0.00000000E+00  0.00000000E+00
  0.00000000E+00  0.00000000E+00  0.00000000E+00
  0.00000000E+00  0.00000000E+00  0.00000000E+00
  0.00000000E+00  0.00000000E+00  0.00000000E+00
  0.00000000E+00  0.00000000E+00  0.00000000E+00
  0.00000000E+00  0.00000000E+00  0.00000000E+00
  0.00000000E+00  0.00000000E+00  0.00000000E+00
  0.00000000E+00  0.00000000E+00  0.00000000E+00
  0.00000000E+00  0.00000000E+00  0.00000000E+00
  0.00000000E+00  0.00000000E+00  0.00000000E+00
  0.00000000E+00  0.00000000E+00  0.00000000E+00
  0.00000000E+00  0.00000000E+00  0.00000000E+00
  0.00000000E+00  0.00000000E+00  0.00000000E+00
  0.00000000E+00  0.00000000E+00  0.00000000E+00
