2 Te4                                   
   1.00000000000000     
     7.6033770922911872    0.0079496634910957   -0.0098886490122515
    -1.8974028433193868    3.2863692627928542    0.0000043562433184
    -0.1439129244891018   -0.0830171619127327   53.2265132203390010
   Mn   Zn   Sn   S 
     1     1     4     8
Direct
  0.3333330000000032  0.3333330000000032  0.3333330000000032
  0.8333330000000032  0.3333330000000032  0.3333330000000032
  0.0006439807363787  0.0006441793825286  0.3954590954883969
  0.5025688904241093  0.0025688036901964  0.3947993505377043
  0.1640981095758875  0.6640981963098004  0.2718676494622996
  0.6660230192636181  0.6660228206174681  0.2712079045116070
  0.3381147778701725  0.3381148924788622  0.4215745386302462
  0.8330696651591868  0.3330698292557380  0.4220435741096419
  0.3285512221298340  0.3285511075211442  0.2450914613697532
  0.8335963348408196  0.3335961707442684  0.2446224258903574
  0.9971906133021374  0.9971901314310410  0.3075664043347265
  0.5039133741691555  0.0039130991762028  0.3068970106607760
  0.1627536258308414  0.6627539008237939  0.3597699893392279
  0.6694763866978594  0.6694768685689558  0.3591005956652774
 
  0.00000000E+00  0.00000000E+00  0.00000000E+00
  0.00000000E+00  0.00000000E+00  0.00000000E+00
  0.00000000E+00  0.00000000E+00  0.00000000E+00
  0.00000000E+00  0.00000000E+00  0.00000000E+00
  0.00000000E+00  0.00000000E+00  0.00000000E+00
  0.00000000E+00  0.00000000E+00  0.00000000E+00
  0.00000000E+00  0.00000000E+00  0.00000000E+00
  0.00000000E+00  0.00000000E+00  0.00000000E+00
  0.00000000E+00  0.00000000E+00  0.00000000E+00
  0.00000000E+00  0.00000000E+00  0.00000000E+00
  0.00000000E+00  0.00000000E+00  0.00000000E+00
  0.00000000E+00  0.00000000E+00  0.00000000E+00
  0.00000000E+00  0.00000000E+00  0.00000000E+00
  0.00000000E+00  0.00000000E+00  0.00000000E+00
