2 Te4                                   
   1.00000000000000     
     8.4089041640142597    0.0863512171106512    0.0144820568912357
    -2.0614396010964109    3.4070821523704029   -0.0108601301391540
     0.0116424190366023   -0.1382614944354250   46.1638362146483132
   Mn   Zr   Sb   Se
     1     1     4     8
Direct
  0.3333330000000032  0.3333330000000032  0.3333330000000032
  0.8333330000000032  0.3333330000000032  0.3333330000000032
  0.0036904061256529  0.0127333169319222  0.4121004070120410
  0.4904769975333911  0.0015076242100954  0.4186994767238610
  0.1761900024666056  0.6651593757899014  0.2479675232761427
  0.6629765938743368  0.6539336830680673  0.2545665929879629
  0.3227820428222413  0.3168384510729282  0.4481850830627669
  0.8424835004906214  0.3339732992360034  0.4444155772506574
  0.3438839571777651  0.3498275489270782  0.2184809169372323
  0.8241824995093850  0.3326927007640030  0.2222504227493419
  0.9817980457994868  0.9889913984396520  0.2984543329063634
  0.5037321353425533 -0.0000689759066512  0.3027521980279799
  0.1629348646574432  0.6667359759066480  0.3639148019720240
  0.6848689542005100  0.6776756015603448  0.3682126670936405
 
  0.00000000E+00  0.00000000E+00  0.00000000E+00
  0.00000000E+00  0.00000000E+00  0.00000000E+00
  0.00000000E+00  0.00000000E+00  0.00000000E+00
  0.00000000E+00  0.00000000E+00  0.00000000E+00
  0.00000000E+00  0.00000000E+00  0.00000000E+00
  0.00000000E+00  0.00000000E+00  0.00000000E+00
  0.00000000E+00  0.00000000E+00  0.00000000E+00
  0.00000000E+00  0.00000000E+00  0.00000000E+00
  0.00000000E+00  0.00000000E+00  0.00000000E+00
  0.00000000E+00  0.00000000E+00  0.00000000E+00
  0.00000000E+00  0.00000000E+00  0.00000000E+00
  0.00000000E+00  0.00000000E+00  0.00000000E+00
  0.00000000E+00  0.00000000E+00  0.00000000E+00
  0.00000000E+00  0.00000000E+00  0.00000000E+00
