2 Te4                                   
   1.00000000000000     
     7.6069649688096010    0.0348912984416840   -0.0408915300535279
    -1.8866335548733744    3.2677058761198725    0.0000064482976763
    -0.2653502706662200   -0.1530374406615252   53.3978074578276747
   Mn   Rh   Sn   S 
     1     1     4     8
Direct
  0.3333330000000032  0.3333330000000032  0.3333330000000032
  0.8333330000000032  0.3333330000000032  0.3333330000000032
  0.9966480930246190  0.9966503320283526  0.3943872945662314
  0.4964266221477077  0.9964271210563108  0.3950627047302220
  0.1702403778522890  0.6702398789436860  0.2716042952697819
  0.6700189069753778  0.6700166679716442  0.2722797054337724
  0.3251539736045067  0.3251524487575399  0.4214791462403827
  0.8368318375976471  0.3368321256731008  0.4210610842978989
  0.3415120263954998  0.3415135512424665  0.2451868537596166
  0.8298341624023593  0.3298338743269056  0.2456049157021005
  0.9742385405680497  0.9742402954574269  0.3106065441443544
  0.5292375186823230  0.0292321976315471  0.3083716814995412
  0.1374294813176735  0.6374348023684500  0.3582953185004627
  0.6924284594319471  0.6924267045425699  0.3560604558556495
 
  0.00000000E+00  0.00000000E+00  0.00000000E+00
  0.00000000E+00  0.00000000E+00  0.00000000E+00
  0.00000000E+00  0.00000000E+00  0.00000000E+00
  0.00000000E+00  0.00000000E+00  0.00000000E+00
  0.00000000E+00  0.00000000E+00  0.00000000E+00
  0.00000000E+00  0.00000000E+00  0.00000000E+00
  0.00000000E+00  0.00000000E+00  0.00000000E+00
  0.00000000E+00  0.00000000E+00  0.00000000E+00
  0.00000000E+00  0.00000000E+00  0.00000000E+00
  0.00000000E+00  0.00000000E+00  0.00000000E+00
  0.00000000E+00  0.00000000E+00  0.00000000E+00
  0.00000000E+00  0.00000000E+00  0.00000000E+00
  0.00000000E+00  0.00000000E+00  0.00000000E+00
  0.00000000E+00  0.00000000E+00  0.00000000E+00
