2 Te4                                   
   1.00000000000000     
     8.0673322898209481    0.0163835879631371    0.0040799863491869
    -2.0097410288065065    3.4799928820574548   -0.0002840694983237
    -0.0124122932854311   -0.0110990226837950   47.3471142354259769
   Mn   Pd   Pb   Se
     1     1     4     8
Direct
  0.3333330000000032  0.3333330000000032  0.3333330000000032
  0.8333330000000032  0.3333330000000032  0.3333330000000032
  0.9989824333551437  0.9989318513075098  0.4104342691432393
  0.5021280297907542  0.0020867694688096  0.4096468880295918
  0.1645389702092428  0.6645802305311872  0.2570201119704121
  0.6676845666448531  0.6677351486924870  0.2562327308567646
  0.3375761784385501  0.3374994788900783  0.4432308452716642
  0.8291227854104296  0.3291481893802700  0.4441539074300291
  0.3290898215614563  0.3291665211099282  0.2234351547283352
  0.8375432145895768  0.3375178106197365  0.2225120925699701
  0.9836362428708215  0.9837427950412250  0.3069698182576762
  0.5144399151992215  0.0140040186914650  0.3055078713211321
  0.1522270848007752  0.6526629813085316  0.3611591286788718
  0.6830307571291753  0.6829242049587718  0.3596971817423277
 
  0.00000000E+00  0.00000000E+00  0.00000000E+00
  0.00000000E+00  0.00000000E+00  0.00000000E+00
  0.00000000E+00  0.00000000E+00  0.00000000E+00
  0.00000000E+00  0.00000000E+00  0.00000000E+00
  0.00000000E+00  0.00000000E+00  0.00000000E+00
  0.00000000E+00  0.00000000E+00  0.00000000E+00
  0.00000000E+00  0.00000000E+00  0.00000000E+00
  0.00000000E+00  0.00000000E+00  0.00000000E+00
  0.00000000E+00  0.00000000E+00  0.00000000E+00
  0.00000000E+00  0.00000000E+00  0.00000000E+00
  0.00000000E+00  0.00000000E+00  0.00000000E+00
  0.00000000E+00  0.00000000E+00  0.00000000E+00
  0.00000000E+00  0.00000000E+00  0.00000000E+00
  0.00000000E+00  0.00000000E+00  0.00000000E+00
