2 Te4                                   
   1.00000000000000     
     7.8467929519426338    0.0691721165032723   -0.0340748049384153
    -1.9317133726121194    3.3411296167375251   -0.0004107622527441
    -0.0337803339426368   -0.0265991659178755   50.5032643493427855
   Mn   Nb   Sb   S 
     1     1     4     8
Direct
  0.3333330000000032  0.3333330000000032  0.3333330000000032
  0.8333330000000032  0.3333330000000032  0.3333330000000032
  0.9925292285801094  0.9932862197095262  0.3983336775561026
  0.4942643118592435  0.9947385207399443  0.4013312900960652
  0.1724026881407534  0.6719284792600525  0.2653357099039387
  0.6741377714198874  0.6733807802904705  0.2683333224439013
  0.3330026964037910  0.3327003141703352  0.4283101221302348
  0.8308737945153639  0.3305920662678747  0.4270388398491394
  0.3336633035962154  0.3339656858296712  0.2383558778697646
  0.8357922054846425  0.3360739337321317  0.2396271601508599
  0.9958774469548182  0.9961804564716578  0.3047337477875979
  0.4984840641868655 -0.0012689474525789  0.3054610153327965
  0.1681829358131311  0.6679359474525757  0.3612059846672074
  0.6707895530451786  0.6704865435283390  0.3619332522124060
 
  0.00000000E+00  0.00000000E+00  0.00000000E+00
  0.00000000E+00  0.00000000E+00  0.00000000E+00
  0.00000000E+00  0.00000000E+00  0.00000000E+00
  0.00000000E+00  0.00000000E+00  0.00000000E+00
  0.00000000E+00  0.00000000E+00  0.00000000E+00
  0.00000000E+00  0.00000000E+00  0.00000000E+00
  0.00000000E+00  0.00000000E+00  0.00000000E+00
  0.00000000E+00  0.00000000E+00  0.00000000E+00
  0.00000000E+00  0.00000000E+00  0.00000000E+00
  0.00000000E+00  0.00000000E+00  0.00000000E+00
  0.00000000E+00  0.00000000E+00  0.00000000E+00
  0.00000000E+00  0.00000000E+00  0.00000000E+00
  0.00000000E+00  0.00000000E+00  0.00000000E+00
  0.00000000E+00  0.00000000E+00  0.00000000E+00
