2 Te4                                   
   1.00000000000000     
     8.0442481843852747    0.2796542805643394    0.4348272897169443
    -1.8899548363200274    3.2731358299082109   -0.0000117732886545
     2.9212777297764658    1.6862305743409751   49.7548307860840779
   Mn   Cu   Pb   S 
     1     1     4     8
Direct
  0.3333330000000032  0.3333330000000032  0.3333330000000032
  0.8333330000000032  0.3333330000000032  0.3333330000000032
  0.0234427598017373  0.0234927168239560  0.4056725961922695
  0.5214427012261178  0.0214731169292943  0.4022248648455450
  0.1452242987738789  0.6451938830707025  0.2644421351544589
  0.6432242401982594  0.6431742831760409  0.2609944038077344
  0.3273617655119515  0.3272277238530742  0.4329812658328984
  0.8219330979762618  0.3219875928789237  0.4340115797272996
  0.3393042344880550  0.3394382761469322  0.2336847341671008
  0.8447329020237446  0.3446784071210827  0.2326544202726997
  0.9544324062189292  0.9544252410250262  0.3120079745350672
  0.4573666004571507  0.9572993186863649  0.3047713648783240
  0.2093003995428461  0.7093676813136319  0.3618956351216799
  0.7122345937810676  0.7122417589749634  0.3546590254649367
 
  0.00000000E+00  0.00000000E+00  0.00000000E+00
  0.00000000E+00  0.00000000E+00  0.00000000E+00
  0.00000000E+00  0.00000000E+00  0.00000000E+00
  0.00000000E+00  0.00000000E+00  0.00000000E+00
  0.00000000E+00  0.00000000E+00  0.00000000E+00
  0.00000000E+00  0.00000000E+00  0.00000000E+00
  0.00000000E+00  0.00000000E+00  0.00000000E+00
  0.00000000E+00  0.00000000E+00  0.00000000E+00
  0.00000000E+00  0.00000000E+00  0.00000000E+00
  0.00000000E+00  0.00000000E+00  0.00000000E+00
  0.00000000E+00  0.00000000E+00  0.00000000E+00
  0.00000000E+00  0.00000000E+00  0.00000000E+00
  0.00000000E+00  0.00000000E+00  0.00000000E+00
  0.00000000E+00  0.00000000E+00  0.00000000E+00
