2 Te4                                   
   1.00000000000000     
     8.7618173954423266   -0.0073198879000735   -0.0017407558321875
    -2.1936242948816282    3.7993632266035720   -0.0000129695850196
    -0.0024368863357888   -0.0015426554489509   39.9959008494251336
   Mn   Bi   Te
     2     4     8
Direct
  0.3333330000000032  0.3333330000000032  0.3333330000000032
  0.8333330000000032  0.3333330000000032  0.3333330000000032
  0.0002164088747180  0.0002726776713484  0.4270233264867390
  0.5002164088747181  0.0002726776713484  0.4270233264867390
  0.1664505911252787  0.6663943223286483  0.2396436735132650
  0.6664505911252787  0.6663943223286483  0.2396436735132650
  0.3336663538968599  0.3336840286719457  0.4705138016538661
  0.8336663538968596  0.3336840286719457  0.4705138016538661
  0.3329996461031465  0.3329819713280607  0.1961521983461334
  0.8329996461031468  0.3329819713280607  0.1961521983461334
 -0.0004253394304896 -0.0004310808603969  0.2938318793534068
  0.4995746605695106 -0.0004310808603969  0.2938318793534068
  0.1670923394304864  0.6670980808603938  0.3728351206465971
  0.6670923394304863  0.6670980808603938  0.3728351206465971
 
  0.00000000E+00  0.00000000E+00  0.00000000E+00
  0.00000000E+00  0.00000000E+00  0.00000000E+00
  0.00000000E+00  0.00000000E+00  0.00000000E+00
  0.00000000E+00  0.00000000E+00  0.00000000E+00
  0.00000000E+00  0.00000000E+00  0.00000000E+00
  0.00000000E+00  0.00000000E+00  0.00000000E+00
  0.00000000E+00  0.00000000E+00  0.00000000E+00
  0.00000000E+00  0.00000000E+00  0.00000000E+00
  0.00000000E+00  0.00000000E+00  0.00000000E+00
  0.00000000E+00  0.00000000E+00  0.00000000E+00
  0.00000000E+00  0.00000000E+00  0.00000000E+00
  0.00000000E+00  0.00000000E+00  0.00000000E+00
  0.00000000E+00  0.00000000E+00  0.00000000E+00
  0.00000000E+00  0.00000000E+00  0.00000000E+00
