2 Te4                                   
   1.00000000000000     
     8.4522889405647650   -0.0278214834136698    0.0046408078112499
    -2.1251213818478720    3.6797971240872216   -0.0000413735897908
     0.0068930717258392    0.0029519469184002   42.8685843368998931
   Mn   Zn   Sn   Te
     1     1     4     8
Direct
  0.3333330000000032  0.3333330000000032  0.3333330000000032
  0.8333330000000032  0.3333330000000032  0.3333330000000032
  0.9984477194560565  0.9989432627095199  0.4206995789945676
  0.5009913040805034  0.0007359489756499  0.4189471058254581
  0.1656756959194933  0.6659310510243468  0.2477198941745459
  0.6682192805439403  0.6677237372904768  0.2459674210054362
  0.3370497246724212  0.3364823399639624  0.4584490184429840
  0.8303606423566728  0.3308147955481601  0.4593836224972474
  0.3296162753275852  0.3301836600360440  0.2082169815570152
  0.8363053576433336  0.3358512044518463  0.2072823775027519
  0.9969481358583235  0.9977095830514692  0.2970775423011744
  0.5028425230496626  0.0025718911699957  0.2965182509689968
  0.1638244769503343  0.6640951088300012  0.3701487490310071
  0.6697188641416733  0.6689574169485276  0.3695894576988295
 
  0.00000000E+00  0.00000000E+00  0.00000000E+00
  0.00000000E+00  0.00000000E+00  0.00000000E+00
  0.00000000E+00  0.00000000E+00  0.00000000E+00
  0.00000000E+00  0.00000000E+00  0.00000000E+00
  0.00000000E+00  0.00000000E+00  0.00000000E+00
  0.00000000E+00  0.00000000E+00  0.00000000E+00
  0.00000000E+00  0.00000000E+00  0.00000000E+00
  0.00000000E+00  0.00000000E+00  0.00000000E+00
  0.00000000E+00  0.00000000E+00  0.00000000E+00
  0.00000000E+00  0.00000000E+00  0.00000000E+00
  0.00000000E+00  0.00000000E+00  0.00000000E+00
  0.00000000E+00  0.00000000E+00  0.00000000E+00
  0.00000000E+00  0.00000000E+00  0.00000000E+00
  0.00000000E+00  0.00000000E+00  0.00000000E+00
