2 Te4                                   
   1.00000000000000     
     8.1357221801807960    0.1187893636915956    0.0100591615720967
    -1.9824942343711383    3.4337852199926777    0.0000039634424078
     0.0418098327852337    0.0241988222073441   47.2385602693386204
   Mn   Rh   Sb   Se
     1     1     4     8
Direct
  0.3333330000000032  0.3333330000000032  0.3333330000000032
  0.8333330000000032  0.3333330000000032  0.3333330000000032
  0.9878835577334547  0.9878838441750151  0.4047756815908587
  0.4908083998210870  0.9908084199552215  0.4041424500114851
  0.1758586001789098  0.6758585800447753  0.2625245499885188
  0.6787834422665421  0.6787831558249817  0.2618913184091452
  0.3414151069404389  0.3414151542628613  0.4366647686247939
  0.8315237345753642  0.3315236272611303  0.4376354062526219
  0.3252508930595675  0.3252508457371380  0.2300012313752055
  0.8351422654246422  0.3351423727388761  0.2290305937473774
  0.9763404041802213  0.9763404301845530  0.3058432166324425
  0.4914977270281655  0.9914972346456983  0.3021350911737301
  0.1751692729718314  0.6751697653542985  0.3645319088262738
  0.6903265958197755  0.6903265698154438  0.3608237833675614
 
  0.00000000E+00  0.00000000E+00  0.00000000E+00
  0.00000000E+00  0.00000000E+00  0.00000000E+00
  0.00000000E+00  0.00000000E+00  0.00000000E+00
  0.00000000E+00  0.00000000E+00  0.00000000E+00
  0.00000000E+00  0.00000000E+00  0.00000000E+00
  0.00000000E+00  0.00000000E+00  0.00000000E+00
  0.00000000E+00  0.00000000E+00  0.00000000E+00
  0.00000000E+00  0.00000000E+00  0.00000000E+00
  0.00000000E+00  0.00000000E+00  0.00000000E+00
  0.00000000E+00  0.00000000E+00  0.00000000E+00
  0.00000000E+00  0.00000000E+00  0.00000000E+00
  0.00000000E+00  0.00000000E+00  0.00000000E+00
  0.00000000E+00  0.00000000E+00  0.00000000E+00
  0.00000000E+00  0.00000000E+00  0.00000000E+00
