2 Te4                                   
   1.00000000000000     
     8.1374279800146176    0.1985676685571788    0.0376628504692542
    -1.9483755203120237    3.3747192671069515   -0.0000015509567558
     0.3091361725294402    0.1783805439727978   47.7889511871551846
   Mn   Zr   Bi   S 
     1     1     4     8
Direct
  0.3333330000000032  0.3333330000000032  0.3333330000000032
  0.8333330000000032  0.3333330000000032  0.3333330000000032
  0.0126656364948770  0.0126706636953214  0.4080304610911487
  0.4928569524270749  0.9928113311063540  0.4127999738122082
  0.1738100475729219  0.6738556688936428  0.2538670261877957
  0.6540013635051197  0.6539963363046754  0.2586365389088552
  0.3203643789517382  0.3203048789974092  0.4418713187953108
  0.8331793208694044  0.3331668546770775  0.4372946478302522
  0.3463016210482682  0.3463611210025972  0.2247946812046886
  0.8334866791306020  0.3334991453229290  0.2293713521697470
  0.9731585627025764  0.9731624319839958  0.3016690534850158
  0.5088013029074958  0.0088199574056884  0.3072604448971949
  0.1578656970925011  0.6578470425943082  0.3594065551028090
  0.6935084372974204  0.6935045680160010  0.3649979465149881
 
  0.00000000E+00  0.00000000E+00  0.00000000E+00
  0.00000000E+00  0.00000000E+00  0.00000000E+00
  0.00000000E+00  0.00000000E+00  0.00000000E+00
  0.00000000E+00  0.00000000E+00  0.00000000E+00
  0.00000000E+00  0.00000000E+00  0.00000000E+00
  0.00000000E+00  0.00000000E+00  0.00000000E+00
  0.00000000E+00  0.00000000E+00  0.00000000E+00
  0.00000000E+00  0.00000000E+00  0.00000000E+00
  0.00000000E+00  0.00000000E+00  0.00000000E+00
  0.00000000E+00  0.00000000E+00  0.00000000E+00
  0.00000000E+00  0.00000000E+00  0.00000000E+00
  0.00000000E+00  0.00000000E+00  0.00000000E+00
  0.00000000E+00  0.00000000E+00  0.00000000E+00
  0.00000000E+00  0.00000000E+00  0.00000000E+00
