2 Te4                                   
   1.00000000000000     
     7.9570533314233627    0.0020402935651300   -0.0083356139722908
    -1.9883806740261389    3.4437909482768894   -0.0000264770649701
    -0.0307422043416515   -0.0181430397816883   48.5576882998421340
   Mn   Ti   Bi   S 
     1     1     4     8
Direct
  0.3333330000000032  0.3333330000000032  0.3333330000000032
  0.8333330000000032  0.3333330000000032  0.3333330000000032
  0.0001409443823845  0.0001416203465293  0.4024048146954348
  0.5009545933994174  0.0009441109055098  0.4033557190194879
  0.1657124066005795  0.6657228890944871  0.2633112809805160
  0.6665260556176124  0.6665253796534675  0.2642621853045691
  0.3335974672614974  0.3335901349938418  0.4333486979342641
  0.8347736996909779  0.3347886583432093  0.4330755978562271
  0.3330685327385090  0.3330758650061647  0.2333173020657352
  0.8318923003090285  0.3318773416567972  0.2335904021437722
  0.0006046687455522  0.0005998552164624  0.3047069626355553
  0.4988290581980626  0.9987736704300439  0.3046858339716628
  0.1678379418019343  0.6678933295699528  0.3619811660283411
  0.6660623312544447  0.6660671447835345  0.3619600373644486
 
  0.00000000E+00  0.00000000E+00  0.00000000E+00
  0.00000000E+00  0.00000000E+00  0.00000000E+00
  0.00000000E+00  0.00000000E+00  0.00000000E+00
  0.00000000E+00  0.00000000E+00  0.00000000E+00
  0.00000000E+00  0.00000000E+00  0.00000000E+00
  0.00000000E+00  0.00000000E+00  0.00000000E+00
  0.00000000E+00  0.00000000E+00  0.00000000E+00
  0.00000000E+00  0.00000000E+00  0.00000000E+00
  0.00000000E+00  0.00000000E+00  0.00000000E+00
  0.00000000E+00  0.00000000E+00  0.00000000E+00
  0.00000000E+00  0.00000000E+00  0.00000000E+00
  0.00000000E+00  0.00000000E+00  0.00000000E+00
  0.00000000E+00  0.00000000E+00  0.00000000E+00
  0.00000000E+00  0.00000000E+00  0.00000000E+00
