2 Te4                                   
   1.00000000000000     
     8.1676624606607557    0.0570660950523566   -0.0365461812688116
    -2.0172051656607808    3.4938221365076050   -0.0000522493896439
    -0.1396833480911121   -0.0815175220801720   46.4485093331353269
   Mn   Nb   Sb   Se
     1     1     4     8
Direct
  0.3333330000000032  0.3333330000000032  0.3333330000000032
  0.8333330000000032  0.3333330000000032  0.3333330000000032
  0.9973733974811467  0.9973881637916377  0.4072454468939109
  0.4987598452315616 -0.0012322247882652  0.4110420516925113
  0.1679071547684353  0.6678992247882620  0.2556249483074926
  0.6692936025188501  0.6692788362083590  0.2594215531060930
  0.3327516010228401  0.3327576836467649  0.4420275297460555
  0.8336347018626937  0.3336447123166114  0.4409701587847878
  0.3339143989771663  0.3339083163532415  0.2246384702539439
  0.8330312981373127  0.3330212876833950  0.2256958412152113
 -0.0009647106211126 -0.0009623958664015  0.3010921601053921
  0.5004517577605974  0.0004418426184819  0.3011456393882506
  0.1662152422393995  0.6662251573815147  0.3655213606117533
  0.6676317106211095  0.6676293958663984  0.3655748398946118
 
  0.00000000E+00  0.00000000E+00  0.00000000E+00
  0.00000000E+00  0.00000000E+00  0.00000000E+00
  0.00000000E+00  0.00000000E+00  0.00000000E+00
  0.00000000E+00  0.00000000E+00  0.00000000E+00
  0.00000000E+00  0.00000000E+00  0.00000000E+00
  0.00000000E+00  0.00000000E+00  0.00000000E+00
  0.00000000E+00  0.00000000E+00  0.00000000E+00
  0.00000000E+00  0.00000000E+00  0.00000000E+00
  0.00000000E+00  0.00000000E+00  0.00000000E+00
  0.00000000E+00  0.00000000E+00  0.00000000E+00
  0.00000000E+00  0.00000000E+00  0.00000000E+00
  0.00000000E+00  0.00000000E+00  0.00000000E+00
  0.00000000E+00  0.00000000E+00  0.00000000E+00
  0.00000000E+00  0.00000000E+00  0.00000000E+00
