2 Te4                                   
   1.00000000000000     
     8.0821092998240029   -0.0033463398631188   -0.0236719359730929
    -2.0219770495572233    3.5023833847539882   -0.0004745321504854
    -0.1166708191136788   -0.0738734776747652   47.0252138622254350
   Mn   Fe   Pb   Se
     1     1     4     8
Direct
  0.3333330000000032  0.3333330000000032  0.3333330000000032
  0.8333330000000032  0.3333330000000032  0.3333330000000032
  0.9978295600580571  0.9977750320867896  0.4112526595389133
  0.4992245361958249 -0.0008454496932644  0.4104966402364167
  0.1674424638041719  0.6675124496932613  0.2561703597635872
  0.6688374399419397  0.6688919679132072  0.2554143404610906
  0.3364081955009988  0.3363287128232170  0.4445305858388504
  0.8306307731501495  0.3307014687540334  0.4450529550485552
  0.3302578044990076  0.3303372871767894  0.2221354141611489
  0.8360352268498569  0.3359645312459730  0.2216130449514440
  0.9914264323417232  0.9915106113704210  0.3043654449528386
  0.5094958773187871  0.0092226511827698  0.3042128192422490
  0.1571711226812096  0.6574443488172269  0.3624541807577549
  0.6752405676582736  0.6751563886295758  0.3623015550471653
 
  0.00000000E+00  0.00000000E+00  0.00000000E+00
  0.00000000E+00  0.00000000E+00  0.00000000E+00
  0.00000000E+00  0.00000000E+00  0.00000000E+00
  0.00000000E+00  0.00000000E+00  0.00000000E+00
  0.00000000E+00  0.00000000E+00  0.00000000E+00
  0.00000000E+00  0.00000000E+00  0.00000000E+00
  0.00000000E+00  0.00000000E+00  0.00000000E+00
  0.00000000E+00  0.00000000E+00  0.00000000E+00
  0.00000000E+00  0.00000000E+00  0.00000000E+00
  0.00000000E+00  0.00000000E+00  0.00000000E+00
  0.00000000E+00  0.00000000E+00  0.00000000E+00
  0.00000000E+00  0.00000000E+00  0.00000000E+00
  0.00000000E+00  0.00000000E+00  0.00000000E+00
  0.00000000E+00  0.00000000E+00  0.00000000E+00
