2 Te4                                   
   1.00000000000000     
     8.0653133611915919    0.0006414690687713   -0.0045624450511704
    -2.0160514799257379    3.4918955013417006    0.0000030620678729
    -0.0122980677531727   -0.0070590615431777   47.2507400943517695
   Mn   Zn   Sb   Se
     1     1     4     8
Direct
  0.3333330000000032  0.3333330000000032  0.3333330000000032
  0.8333330000000032  0.3333330000000032  0.3333330000000032
  0.9984832686130409  0.9984832504800416  0.4056719471695693
  0.5008243007488336  0.0008242447900467  0.4053466994739963
  0.1658426992511633  0.6658427552099501  0.2613203005260076
  0.6681837313869559  0.6681837495199552  0.2609950528304346
  0.3355673271108271  0.3355672733252543  0.4380056860399184
  0.8309545773912674  0.3309545714794124  0.4384164445701324
  0.3310986728891793  0.3310987266747522  0.2286603139600809
  0.8357114226087390  0.3357114285205940  0.2282495554298669
  0.9944995980321701  0.9944993249525352  0.3031105562697707
  0.5047190805803762  0.0047187701305704  0.3024735682491020
  0.1619479194196207  0.6619482298694264  0.3641934317509019
  0.6721674019678266  0.6721676750474616  0.3635564437302332
 
  0.00000000E+00  0.00000000E+00  0.00000000E+00
  0.00000000E+00  0.00000000E+00  0.00000000E+00
  0.00000000E+00  0.00000000E+00  0.00000000E+00
  0.00000000E+00  0.00000000E+00  0.00000000E+00
  0.00000000E+00  0.00000000E+00  0.00000000E+00
  0.00000000E+00  0.00000000E+00  0.00000000E+00
  0.00000000E+00  0.00000000E+00  0.00000000E+00
  0.00000000E+00  0.00000000E+00  0.00000000E+00
  0.00000000E+00  0.00000000E+00  0.00000000E+00
  0.00000000E+00  0.00000000E+00  0.00000000E+00
  0.00000000E+00  0.00000000E+00  0.00000000E+00
  0.00000000E+00  0.00000000E+00  0.00000000E+00
  0.00000000E+00  0.00000000E+00  0.00000000E+00
  0.00000000E+00  0.00000000E+00  0.00000000E+00
