2 Te4                                   
   1.00000000000000     
     8.0851173473855482   -0.0059576727672882   -0.0061439160397558
    -2.0238605234849945    3.5049015217517336   -0.0003281735178961
    -0.1374579721212942   -0.0836433935895608   46.9823803529239328
   Mn   Zn   Pb   Se
     1     1     4     8
Direct
  0.3333330000000032  0.3333330000000032  0.3333330000000032
  0.8333330000000032  0.3333330000000032  0.3333330000000032
  0.9973798042675622  0.9973767832205548  0.4100100440550871
  0.5019371785218112  0.0019617216171049  0.4085079973132585
  0.1647298214781857  0.6647052783828918  0.2581590026867454
  0.6692871957324346  0.6692902167794420  0.2566569559449168
  0.3383763935430787  0.3382901864882740  0.4428088793331590
  0.8304858507493821  0.3305340997843853  0.4438555451454109
  0.3282896064569277  0.3283758135117324  0.2238571206668403
  0.8361801492506243  0.3361319002156211  0.2228104548545884
  0.9962399698780752  0.9963169710863982  0.3040229969061600
  0.4993024823348216  0.9992451561284630  0.3041613344559842
  0.1673645176651753  0.6674218438715338  0.3625056655440197
  0.6704270301219216  0.6703500289135986  0.3626440030938439
 
  0.00000000E+00  0.00000000E+00  0.00000000E+00
  0.00000000E+00  0.00000000E+00  0.00000000E+00
  0.00000000E+00  0.00000000E+00  0.00000000E+00
  0.00000000E+00  0.00000000E+00  0.00000000E+00
  0.00000000E+00  0.00000000E+00  0.00000000E+00
  0.00000000E+00  0.00000000E+00  0.00000000E+00
  0.00000000E+00  0.00000000E+00  0.00000000E+00
  0.00000000E+00  0.00000000E+00  0.00000000E+00
  0.00000000E+00  0.00000000E+00  0.00000000E+00
  0.00000000E+00  0.00000000E+00  0.00000000E+00
  0.00000000E+00  0.00000000E+00  0.00000000E+00
  0.00000000E+00  0.00000000E+00  0.00000000E+00
  0.00000000E+00  0.00000000E+00  0.00000000E+00
  0.00000000E+00  0.00000000E+00  0.00000000E+00
