2 Te4                                   
   1.00000000000000     
     8.0379782938271873    0.0391796809299227   -0.0464007998449908
    -1.9925292626385274    3.4510873096246653    0.0001183514548268
    -0.2624293358865208   -0.1498126892660663   47.8416193522820521
   Mn   Rh   Pb   Se
     1     1     4     8
Direct
  0.3333330000000032  0.3333330000000032  0.3333330000000032
  0.8333330000000032  0.3333330000000032  0.3333330000000032
  0.9971451987063992  0.9970780926953134  0.4095668028841116
  0.5003302070555077  0.0003847029338758  0.4088748711221001
  0.1663367929444890  0.6662822970661211  0.2577921288779038
  0.6695218012935976  0.6695889073046833  0.2571001971158923
  0.3359824416083066  0.3359986486793046  0.4424456499384986
  0.8321649069802062  0.3321483237559544  0.4431351585928566
  0.3306835583916998  0.3306673513207019  0.2242203500615006
  0.8345010930198002  0.3345176762440520  0.2235308414071428
  0.9760627834411745  0.9761039323850470  0.3072706195286982
  0.5198923857817579  0.0197718119463794  0.3061309851446328
  0.1467746142182389  0.6468951880536175  0.3605360148553711
  0.6906042165588223  0.6905630676149498  0.3593963804713057
 
  0.00000000E+00  0.00000000E+00  0.00000000E+00
  0.00000000E+00  0.00000000E+00  0.00000000E+00
  0.00000000E+00  0.00000000E+00  0.00000000E+00
  0.00000000E+00  0.00000000E+00  0.00000000E+00
  0.00000000E+00  0.00000000E+00  0.00000000E+00
  0.00000000E+00  0.00000000E+00  0.00000000E+00
  0.00000000E+00  0.00000000E+00  0.00000000E+00
  0.00000000E+00  0.00000000E+00  0.00000000E+00
  0.00000000E+00  0.00000000E+00  0.00000000E+00
  0.00000000E+00  0.00000000E+00  0.00000000E+00
  0.00000000E+00  0.00000000E+00  0.00000000E+00
  0.00000000E+00  0.00000000E+00  0.00000000E+00
  0.00000000E+00  0.00000000E+00  0.00000000E+00
  0.00000000E+00  0.00000000E+00  0.00000000E+00
