2 Te4                                   
   1.00000000000000     
     8.5915024783910940    0.0201962002520157    0.0059293524225233
    -2.1391324012307176    3.7045569621166452   -0.0017100360129923
     0.0164462768122813   -0.0090979115735096   41.7557780255780813
   Mn   Tc   Pb   Te
     1     1     4     8
Direct
  0.3333330000000032  0.3333330000000032  0.3333330000000032
  0.8333330000000032  0.3333330000000032  0.3333330000000032
  0.0002326874604791  0.0000313784934487  0.4307255512843347
  0.5003239382771061  0.0002262617467963  0.4313924965158804
  0.1663430617228906  0.6664407382532005  0.2352745034841235
  0.6664343125395177  0.6666356215065480  0.2359414487156693
  0.3335000325849187  0.3335653103730744  0.4727480150245089
  0.8322006850353272  0.3321821258585536  0.4728542132664248
  0.3331659674150877  0.3331006896269320  0.1939179849754905
  0.8344653149646792  0.3344838741414529  0.1938117867335745
  0.9897959008977275  0.9896906751146625  0.2975422342677294
  0.5090512392860452  0.0089596957950675  0.2972052884440992
  0.1576157607139516  0.6577073042049292  0.3694617115559047
  0.6768710991022693  0.6769763248853343  0.3691247657322745
 
  0.00000000E+00  0.00000000E+00  0.00000000E+00
  0.00000000E+00  0.00000000E+00  0.00000000E+00
  0.00000000E+00  0.00000000E+00  0.00000000E+00
  0.00000000E+00  0.00000000E+00  0.00000000E+00
  0.00000000E+00  0.00000000E+00  0.00000000E+00
  0.00000000E+00  0.00000000E+00  0.00000000E+00
  0.00000000E+00  0.00000000E+00  0.00000000E+00
  0.00000000E+00  0.00000000E+00  0.00000000E+00
  0.00000000E+00  0.00000000E+00  0.00000000E+00
  0.00000000E+00  0.00000000E+00  0.00000000E+00
  0.00000000E+00  0.00000000E+00  0.00000000E+00
  0.00000000E+00  0.00000000E+00  0.00000000E+00
  0.00000000E+00  0.00000000E+00  0.00000000E+00
  0.00000000E+00  0.00000000E+00  0.00000000E+00
