2 Te4                                   
   1.00000000000000     
     8.0759082339404227   -0.0219414171083863    0.0112840486781305
    -2.0284729464472711    3.5144567793768644    0.0000945889758628
     0.1066296052706012    0.0625663864775680   46.9618076645521754
   Mn   Ru   Sb   Se
     1     1     4     8
Direct
  0.3333330000000032  0.3333330000000032  0.3333330000000032
  0.8333330000000032  0.3333330000000032  0.3333330000000032
  0.0004353934175893  0.0004457010151519  0.4076145851468262
  0.4998997990452592  0.9999420773849874  0.4062938189534551
  0.1667672009547376  0.6667249226150094  0.2603731810465488
  0.6662316065824075  0.6662212989848449  0.2590524148531776
  0.3324831555130511  0.3324450801887077  0.4395907564429691
  0.8319987393873716  0.3319934099664373  0.4399154861900034
  0.3341828444869553  0.3342209198112988  0.2270752435570302
  0.8346672606126349  0.3346725900335691  0.2267505138099961
 -0.0012114428984040 -0.0011546334637562  0.3014595600302065
  0.5010308637564271  0.0009462339933964  0.3017619846670411
  0.1656361362435694  0.6657207660066006  0.3649050153329628
  0.6678784428984007  0.6678216334637529  0.3652074399697974
 
  0.00000000E+00  0.00000000E+00  0.00000000E+00
  0.00000000E+00  0.00000000E+00  0.00000000E+00
  0.00000000E+00  0.00000000E+00  0.00000000E+00
  0.00000000E+00  0.00000000E+00  0.00000000E+00
  0.00000000E+00  0.00000000E+00  0.00000000E+00
  0.00000000E+00  0.00000000E+00  0.00000000E+00
  0.00000000E+00  0.00000000E+00  0.00000000E+00
  0.00000000E+00  0.00000000E+00  0.00000000E+00
  0.00000000E+00  0.00000000E+00  0.00000000E+00
  0.00000000E+00  0.00000000E+00  0.00000000E+00
  0.00000000E+00  0.00000000E+00  0.00000000E+00
  0.00000000E+00  0.00000000E+00  0.00000000E+00
  0.00000000E+00  0.00000000E+00  0.00000000E+00
  0.00000000E+00  0.00000000E+00  0.00000000E+00
