2 Te4                                   
   1.00000000000000     
     8.1061562016710518    0.0076570053240950   -0.0016661117031760
    -2.0232240724076158    3.5044237308841013   -0.0000724233921367
    -0.0326343551906544   -0.0197121970584908   46.8212158882532350
   Mn   Ti   Sb   Se
     1     1     4     8
Direct
  0.3333330000000032  0.3333330000000032  0.3333330000000032
  0.8333330000000032  0.3333330000000032  0.3333330000000032
  0.9996044031112263  0.9996075584806110  0.4069594626138521
  0.4995339841456590 -0.0004655898102859  0.4083723600393622
  0.1671330158543309  0.6671325898102826  0.2582946399606417
  0.6670625968887705  0.6670594415193858  0.2597075373861518
  0.3335271330292335  0.3335171478397052  0.4407860446118518
  0.8349992405619580  0.3349855107146793  0.4401990372485535
  0.3331388669707729  0.3331488521603012  0.2258799553881476
  0.8316667594380485  0.3316804892853271  0.2264669627514458
  0.0011664032180037  0.0011622860359699  0.3006818568914261
  0.4953678882027632  0.9953542860784585  0.3012329174656699
  0.1712991117972336  0.6713127139215382  0.3654340825343340
  0.6655005967819931  0.6655047139640270  0.3659851431085778
 
  0.00000000E+00  0.00000000E+00  0.00000000E+00
  0.00000000E+00  0.00000000E+00  0.00000000E+00
  0.00000000E+00  0.00000000E+00  0.00000000E+00
  0.00000000E+00  0.00000000E+00  0.00000000E+00
  0.00000000E+00  0.00000000E+00  0.00000000E+00
  0.00000000E+00  0.00000000E+00  0.00000000E+00
  0.00000000E+00  0.00000000E+00  0.00000000E+00
  0.00000000E+00  0.00000000E+00  0.00000000E+00
  0.00000000E+00  0.00000000E+00  0.00000000E+00
  0.00000000E+00  0.00000000E+00  0.00000000E+00
  0.00000000E+00  0.00000000E+00  0.00000000E+00
  0.00000000E+00  0.00000000E+00  0.00000000E+00
  0.00000000E+00  0.00000000E+00  0.00000000E+00
  0.00000000E+00  0.00000000E+00  0.00000000E+00
