2 Te4                                   
   1.00000000000000     
     8.4822083211624051    0.0042179526714908   -0.0140298481415898
    -2.1187274434226677    3.6704346558340033   -0.0001571534465775
    -0.0732656814816899   -0.0440490617448899   42.7328205060459254
   Mn   Mo   Sn   Te
     1     1     4     8
Direct
  0.3333330000000032  0.3333330000000032  0.3333330000000032
  0.8333330000000032  0.3333330000000032  0.3333330000000032
  0.9979069868450945  0.9979069073528012  0.4236375448549042
  0.4996839514678428  0.9996892953545926  0.4255243010370022
  0.1669830485321540  0.6669777046454042  0.2411426989630017
  0.6687600131549023  0.6687600926471956  0.2430294551450997
  0.3306613839006465  0.3307083236271687  0.4636524357784387
  0.8368014100684368  0.3367517250950991  0.4633597110371603
  0.3360046160993599  0.3359576763728377  0.2030135642215606
  0.8298645899315696  0.3299142749049073  0.2033062889628391
  0.9920838411386724  0.9920512836478552  0.2965382090414485
  0.5044023362997964  0.0044773391397370  0.2967008193171989
  0.1622646637002004  0.6621896608602599  0.3699661806828050
  0.6745831588613244  0.6746157163521416  0.3701287909585554
 
  0.00000000E+00  0.00000000E+00  0.00000000E+00
  0.00000000E+00  0.00000000E+00  0.00000000E+00
  0.00000000E+00  0.00000000E+00  0.00000000E+00
  0.00000000E+00  0.00000000E+00  0.00000000E+00
  0.00000000E+00  0.00000000E+00  0.00000000E+00
  0.00000000E+00  0.00000000E+00  0.00000000E+00
  0.00000000E+00  0.00000000E+00  0.00000000E+00
  0.00000000E+00  0.00000000E+00  0.00000000E+00
  0.00000000E+00  0.00000000E+00  0.00000000E+00
  0.00000000E+00  0.00000000E+00  0.00000000E+00
  0.00000000E+00  0.00000000E+00  0.00000000E+00
  0.00000000E+00  0.00000000E+00  0.00000000E+00
  0.00000000E+00  0.00000000E+00  0.00000000E+00
  0.00000000E+00  0.00000000E+00  0.00000000E+00
