2 Te4                                   
   1.00000000000000     
     7.6953590214875600    0.0169398675764758    0.0073431754094087
    -1.9165055023190314    3.3194890214181245   -0.0000056325745549
     0.0317412298960230    0.0182436423448401   52.0306874705923263
   Mn   Zr   Sn   S 
     1     1     4     8
Direct
  0.3333330000000032  0.3333330000000032  0.3333330000000032
  0.8333330000000032  0.3333330000000032  0.3333330000000032
  0.0036153362164812  0.0036231469934060  0.4041884149529720
  0.4957103529091780  0.9957433962436950  0.4060642321508278
  0.1709566470908188  0.6709236037562947  0.2606027678491761
  0.6630516637835157  0.6630438530065906  0.2624785850470319
  0.3270198768899052  0.3270382536939081  0.4330112590185947
  0.8380432907705971  0.3380424334234575  0.4313276039485856
  0.3396461231101012  0.3396277463060983  0.2336547409814047
  0.8286227092294093  0.3286235665765489  0.2353383960514137
  0.9891902945123526  0.9891955145341977  0.3052035747507919
  0.5050600863001435  0.0050636582386466  0.3062403281379950
  0.1616069136998533  0.6616033417613503  0.3604266718620089
  0.6774767054876442  0.6774714854657991  0.3614634252492120
 
  0.00000000E+00  0.00000000E+00  0.00000000E+00
  0.00000000E+00  0.00000000E+00  0.00000000E+00
  0.00000000E+00  0.00000000E+00  0.00000000E+00
  0.00000000E+00  0.00000000E+00  0.00000000E+00
  0.00000000E+00  0.00000000E+00  0.00000000E+00
  0.00000000E+00  0.00000000E+00  0.00000000E+00
  0.00000000E+00  0.00000000E+00  0.00000000E+00
  0.00000000E+00  0.00000000E+00  0.00000000E+00
  0.00000000E+00  0.00000000E+00  0.00000000E+00
  0.00000000E+00  0.00000000E+00  0.00000000E+00
  0.00000000E+00  0.00000000E+00  0.00000000E+00
  0.00000000E+00  0.00000000E+00  0.00000000E+00
  0.00000000E+00  0.00000000E+00  0.00000000E+00
  0.00000000E+00  0.00000000E+00  0.00000000E+00
