2 Te4                                   
   1.00000000000000     
     8.5447379168327160    0.0126644304078220   -0.0021133308193270
    -2.1307059700525235    3.6905607756994230   -0.0002731310573367
     0.0021583817248416   -0.0016519953783073   42.1646386170546776
   Mn   Nb   Pb   Te
     1     1     4     8
Direct
  0.3333330000000032  0.3333330000000032  0.3333330000000032
  0.8333330000000032  0.3333330000000032  0.3333330000000032
  0.0000876319658285  0.0000891175101993  0.4330633151460056
  0.4994294064057729  0.9994139595772478  0.4338105595426071
  0.1672375935942239  0.6672530404227490  0.2328564404573969
  0.6665793680341683  0.6665778824897974  0.2336036848539982
  0.3326188080582047  0.3325884316342821  0.4755509431948948
  0.8327829749072784  0.3327759031421788  0.4750893019537948
  0.3340471919418018  0.3340775683657243  0.1911150568051046
  0.8338830250927280  0.3338900968578277  0.1915766980462044
  0.9851727230512414  0.9851751499887174  0.2951714134831764
  0.5061459885802826  0.0060944316242138  0.2969430201663227
  0.1605210114197142  0.6605725683757829  0.3697239798336812
  0.6814942769487554  0.6814918500112794  0.3714955865168275
 
  0.00000000E+00  0.00000000E+00  0.00000000E+00
  0.00000000E+00  0.00000000E+00  0.00000000E+00
  0.00000000E+00  0.00000000E+00  0.00000000E+00
  0.00000000E+00  0.00000000E+00  0.00000000E+00
  0.00000000E+00  0.00000000E+00  0.00000000E+00
  0.00000000E+00  0.00000000E+00  0.00000000E+00
  0.00000000E+00  0.00000000E+00  0.00000000E+00
  0.00000000E+00  0.00000000E+00  0.00000000E+00
  0.00000000E+00  0.00000000E+00  0.00000000E+00
  0.00000000E+00  0.00000000E+00  0.00000000E+00
  0.00000000E+00  0.00000000E+00  0.00000000E+00
  0.00000000E+00  0.00000000E+00  0.00000000E+00
  0.00000000E+00  0.00000000E+00  0.00000000E+00
  0.00000000E+00  0.00000000E+00  0.00000000E+00
