2 Te4                                   
   1.00000000000000     
     8.4493799823324682   -0.0201387647628380    0.0227320002552792
    -2.1211049987761674    3.6657657774129349   -0.0003823214566899
     0.0998368796830849    0.0531594466042307   43.0253349462034720
   Mn   Y    Bi   Se
     1     1     4     8
Direct
  0.3333330000000032  0.3333330000000032  0.3333330000000032
  0.8333330000000032  0.3333330000000032  0.3333330000000032
  0.0033223388996326  0.0036542380412411  0.4173067719073370
  0.4978866687526375  0.9980353914284387  0.4200956504529442
  0.1687803312473594  0.6686316085715581  0.2465713495470596
  0.6633446611003642  0.6630127619587557  0.2493602280926669
  0.3289285021428652  0.3288138944802588  0.4541527017609119
  0.8370977878456555  0.3369902054494083  0.4525590791432217
  0.3377374978571412  0.3378521055197476  0.2125132982390875
  0.8295682121543509  0.3296757945505981  0.2141069208567848
  0.0093244202526599  0.0095101791919031  0.2966764994444012
  0.4885840446493607  0.9885253849131309  0.2981771426438062
  0.1780829553506361  0.6781416150868659  0.3684898573561977
  0.6573425797473367  0.6571568208080938  0.3699905005556027
 
  0.00000000E+00  0.00000000E+00  0.00000000E+00
  0.00000000E+00  0.00000000E+00  0.00000000E+00
  0.00000000E+00  0.00000000E+00  0.00000000E+00
  0.00000000E+00  0.00000000E+00  0.00000000E+00
  0.00000000E+00  0.00000000E+00  0.00000000E+00
  0.00000000E+00  0.00000000E+00  0.00000000E+00
  0.00000000E+00  0.00000000E+00  0.00000000E+00
  0.00000000E+00  0.00000000E+00  0.00000000E+00
  0.00000000E+00  0.00000000E+00  0.00000000E+00
  0.00000000E+00  0.00000000E+00  0.00000000E+00
  0.00000000E+00  0.00000000E+00  0.00000000E+00
  0.00000000E+00  0.00000000E+00  0.00000000E+00
  0.00000000E+00  0.00000000E+00  0.00000000E+00
  0.00000000E+00  0.00000000E+00  0.00000000E+00
