2 Te4                                   
   1.00000000000000     
     8.5435159733047747    0.0407960278674749    0.0546053771637925
    -2.1182150467927561    3.6688425875939434    0.0000006188514486
     0.2602634869847301    0.1502626038493188   42.3420876668836783
   Mn   Cu   Sb   Te
     1     1     4     8
Direct
  0.3333330000000032  0.3333330000000032  0.3333330000000032
  0.8333330000000032  0.3333330000000032  0.3333330000000032
  0.9970749933176999  0.9970765308349013  0.4203072611608381
  0.4985211432179160  0.9985226440639432  0.4150692939570279
  0.1681458567820809  0.6681443559360536  0.2515977060429760
  0.6695920066822969  0.6695904691650955  0.2463597388391658
  0.3380858894002078  0.3380839887542761  0.4571594978144499
  0.8281017159722467  0.3280998383676600  0.4595881447753059
  0.3285801105997986  0.3285820112457303  0.2095065021855496
  0.8385642840277597  0.3385661616323393  0.2070778552246935
  0.9858274010056265  0.9858258680703493  0.2984734496572412
  0.4969878215506134  0.9969885770768689  0.2954702879658307
  0.1696791784493835  0.6696784229231278  0.3711967120341731
  0.6808395989943703  0.6808411319296475  0.3681935503427627
 
  0.00000000E+00  0.00000000E+00  0.00000000E+00
  0.00000000E+00  0.00000000E+00  0.00000000E+00
  0.00000000E+00  0.00000000E+00  0.00000000E+00
  0.00000000E+00  0.00000000E+00  0.00000000E+00
  0.00000000E+00  0.00000000E+00  0.00000000E+00
  0.00000000E+00  0.00000000E+00  0.00000000E+00
  0.00000000E+00  0.00000000E+00  0.00000000E+00
  0.00000000E+00  0.00000000E+00  0.00000000E+00
  0.00000000E+00  0.00000000E+00  0.00000000E+00
  0.00000000E+00  0.00000000E+00  0.00000000E+00
  0.00000000E+00  0.00000000E+00  0.00000000E+00
  0.00000000E+00  0.00000000E+00  0.00000000E+00
  0.00000000E+00  0.00000000E+00  0.00000000E+00
  0.00000000E+00  0.00000000E+00  0.00000000E+00
