2 Te4                                   
   1.00000000000000     
     7.9316683217359802    0.0401981524044076   -0.0098775800571448
    -1.9655141535382876    3.4049323247509791    0.0000361220104711
    -0.0650212058621608   -0.0370248900498052   49.1326480472054286
   Mn   Nb   Sn   Se
     1     1     4     8
Direct
  0.3333330000000032  0.3333330000000032  0.3333330000000032
  0.8333330000000032  0.3333330000000032  0.3333330000000032
  0.0007281597155993  0.0006907820900375  0.4107087679938106
  0.4978217418523885  0.9978455023398608  0.4125087686524045
  0.1688452581476083  0.6688214976601360  0.2541582313475994
  0.6659388402843973  0.6659762179099593  0.2559582320061933
  0.3287346843590576  0.3287431618749608  0.4432176970506504
  0.8365652677414730  0.3365585996664316  0.4422341768793417
  0.3379313156409489  0.3379228381250456  0.2234483029493489
  0.8301007322585334  0.3301074003335748  0.2244318231206576
  0.9825082324581944  0.9826052020741054  0.3024412334038192
  0.5102428076293775  0.0101229451396677  0.3036070125521635
  0.1564241923706193  0.6565440548603291  0.3630599874478403
  0.6841587675418024  0.6840617979258914  0.3642257665961847
 
  0.00000000E+00  0.00000000E+00  0.00000000E+00
  0.00000000E+00  0.00000000E+00  0.00000000E+00
  0.00000000E+00  0.00000000E+00  0.00000000E+00
  0.00000000E+00  0.00000000E+00  0.00000000E+00
  0.00000000E+00  0.00000000E+00  0.00000000E+00
  0.00000000E+00  0.00000000E+00  0.00000000E+00
  0.00000000E+00  0.00000000E+00  0.00000000E+00
  0.00000000E+00  0.00000000E+00  0.00000000E+00
  0.00000000E+00  0.00000000E+00  0.00000000E+00
  0.00000000E+00  0.00000000E+00  0.00000000E+00
  0.00000000E+00  0.00000000E+00  0.00000000E+00
  0.00000000E+00  0.00000000E+00  0.00000000E+00
  0.00000000E+00  0.00000000E+00  0.00000000E+00
  0.00000000E+00  0.00000000E+00  0.00000000E+00
