2 Te4                                   
   1.00000000000000     
     8.7299536428127702   -0.0198060418727268    0.0141587962797499
    -2.1910510228210645    3.7949060801627046   -0.0006095088112934
     0.0081418484723926    0.0032703386711773   40.2223472484508022
   Mn   Y    Pb   Te
     1     1     4     8
Direct
  0.3333330000000032  0.3333330000000032  0.3333330000000032
  0.8333330000000032  0.3333330000000032  0.3333330000000032
  0.0023853295249395  0.0022502528684545  0.4343585475699408
  0.4960669151254783  0.9962011039169574  0.4389782043488749
  0.1706000848745186  0.6704658960830394  0.2276887956511289
  0.6642816704750575  0.6644167471315424  0.2323084524300630
  0.3240849668536793  0.3242514485832238  0.4805424415647179
  0.8413734602002393  0.3411560411929622  0.4780213198067791
  0.3425810331463271  0.3424145514167826  0.1861235584352815
  0.8252925397997671  0.3255099588070442  0.1886446801932201
  0.0152747925297633  0.0151492326898203  0.2897031448956958
  0.4789543811433290  0.9790682722543936  0.2928744627063143
  0.1877126188566677  0.6875987277456032  0.3737925372936896
  0.6513922074702337  0.6515177673101767  0.3769638551043081
 
  0.00000000E+00  0.00000000E+00  0.00000000E+00
  0.00000000E+00  0.00000000E+00  0.00000000E+00
  0.00000000E+00  0.00000000E+00  0.00000000E+00
  0.00000000E+00  0.00000000E+00  0.00000000E+00
  0.00000000E+00  0.00000000E+00  0.00000000E+00
  0.00000000E+00  0.00000000E+00  0.00000000E+00
  0.00000000E+00  0.00000000E+00  0.00000000E+00
  0.00000000E+00  0.00000000E+00  0.00000000E+00
  0.00000000E+00  0.00000000E+00  0.00000000E+00
  0.00000000E+00  0.00000000E+00  0.00000000E+00
  0.00000000E+00  0.00000000E+00  0.00000000E+00
  0.00000000E+00  0.00000000E+00  0.00000000E+00
  0.00000000E+00  0.00000000E+00  0.00000000E+00
  0.00000000E+00  0.00000000E+00  0.00000000E+00
