2 Te4                                   
   1.00000000000000     
     8.5258626084901277    0.0395155064769768   -0.0441031961886191
    -2.1143548524516280    3.6605920719921929   -0.0010666886038585
    -0.2311909710947421   -0.1461469419745474   42.5282269927423116
   Mn   Rh   Pb   Te
     1     1     4     8
Direct
  0.3333330000000032  0.3333330000000032  0.3333330000000032
  0.8333330000000032  0.3333330000000032  0.3333330000000032
  0.9958816199539032  0.9958854976740312  0.4265612476512517
  0.5014842210260301  0.0015078746691200  0.4252732368838930
  0.1651827789739667  0.6651591253308768  0.2413937631161109
  0.6707853800460936  0.6707815023259656  0.2401057523487523
  0.3374453410587652  0.3374406678088427  0.4665430696539435
  0.8296293425500574  0.3295865027530482  0.4680587528838007
  0.3292206589412413  0.3292253321911637  0.2001229303460559
  0.8370366574499490  0.3370794972469582  0.1986072471161987
  0.9781932205074416  0.9782319222072950  0.3022011722475780
  0.5202960609872358  0.0204834273619752  0.3004961415892754
  0.1463709390127609  0.6461835726380215  0.3661708584107285
  0.6884737794925552  0.6884350777927017  0.3644658277524259
 
  0.00000000E+00  0.00000000E+00  0.00000000E+00
  0.00000000E+00  0.00000000E+00  0.00000000E+00
  0.00000000E+00  0.00000000E+00  0.00000000E+00
  0.00000000E+00  0.00000000E+00  0.00000000E+00
  0.00000000E+00  0.00000000E+00  0.00000000E+00
  0.00000000E+00  0.00000000E+00  0.00000000E+00
  0.00000000E+00  0.00000000E+00  0.00000000E+00
  0.00000000E+00  0.00000000E+00  0.00000000E+00
  0.00000000E+00  0.00000000E+00  0.00000000E+00
  0.00000000E+00  0.00000000E+00  0.00000000E+00
  0.00000000E+00  0.00000000E+00  0.00000000E+00
  0.00000000E+00  0.00000000E+00  0.00000000E+00
  0.00000000E+00  0.00000000E+00  0.00000000E+00
  0.00000000E+00  0.00000000E+00  0.00000000E+00
