2 Te4                                   
   1.00000000000000     
     7.8596329307816593    0.1873877114241982    0.1592017346784828
    -1.8836980171248947    3.2607167272653901   -0.0010116784371094
     0.7570370218756229    0.4210076528435873   51.2416561456520299
   Mn   Cu   Sb   S 
     1     1     4     8
Direct
  0.3333330000000032  0.3333330000000032  0.3333330000000032
  0.8333330000000032  0.3333330000000032  0.3333330000000032
  0.9951380083128700  0.9950907557811465  0.3999309827217512
  0.4932391060067601  0.9932449120640530  0.3939362916352024
  0.1734278939932367  0.6734220879359438  0.2727307083648015
  0.6715289916871268  0.6715762442188503  0.2667360172782527
  0.3293035341040706  0.3292929167842858  0.4234992288545448
  0.8445479477303041  0.3445600761703654  0.4278965669664217
  0.3373624658959358  0.3373730832157206  0.2431667711454616
  0.8221180522697024  0.3221059238296410  0.2387694330335776
  0.9833098204041539  0.9834056519829649  0.3095943450959512
  0.4615451132844889  0.9616921776975803  0.3033186069210172
  0.2051218867155078  0.7049748223024165  0.3633483930789867
  0.6833571795958429  0.6832613480170319  0.3570726549040527
 
  0.00000000E+00  0.00000000E+00  0.00000000E+00
  0.00000000E+00  0.00000000E+00  0.00000000E+00
  0.00000000E+00  0.00000000E+00  0.00000000E+00
  0.00000000E+00  0.00000000E+00  0.00000000E+00
  0.00000000E+00  0.00000000E+00  0.00000000E+00
  0.00000000E+00  0.00000000E+00  0.00000000E+00
  0.00000000E+00  0.00000000E+00  0.00000000E+00
  0.00000000E+00  0.00000000E+00  0.00000000E+00
  0.00000000E+00  0.00000000E+00  0.00000000E+00
  0.00000000E+00  0.00000000E+00  0.00000000E+00
  0.00000000E+00  0.00000000E+00  0.00000000E+00
  0.00000000E+00  0.00000000E+00  0.00000000E+00
  0.00000000E+00  0.00000000E+00  0.00000000E+00
  0.00000000E+00  0.00000000E+00  0.00000000E+00
