2 Te4                                   
   1.00000000000000     
     8.2384677570089355   -0.0051530821396027    0.0002007949493306
    -2.0618492815205132    3.5712345564232599    0.0000039293808250
     0.0068104310072537    0.0039936823886935   45.2483763970501158
   Mn   Bi   Se
     2     4     8
Direct
  0.3333330000000032  0.3333330000000032  0.3333330000000032
  0.8333330000000032  0.3333330000000032  0.3333330000000032
  0.9998560197109142  0.9998560523165119  0.4108881654626097
  0.4998560197109141  0.9998560523165119  0.4108881654626097
  0.1668109802890826  0.6668109476834849  0.2557788345373942
  0.6668109802890826  0.6668109476834849  0.2557788345373942
  0.3331540502963666  0.3331539453742424  0.4460423684362369
  0.8331540502963667  0.3331539453742424  0.4460423684362369
  0.3335119497036398  0.3335120546257640  0.2206236315637624
  0.8335119497036397  0.3335120546257640  0.2206236315637624
  0.9998639665690037  0.9998626261192411  0.3011072433914216
  0.4998639665690038  0.9998626261192411  0.3011072433914216
  0.1668030334309931  0.6668043738807556  0.3655597566085823
  0.6668030334309931  0.6668043738807556  0.3655597566085823
 
  0.00000000E+00  0.00000000E+00  0.00000000E+00
  0.00000000E+00  0.00000000E+00  0.00000000E+00
  0.00000000E+00  0.00000000E+00  0.00000000E+00
  0.00000000E+00  0.00000000E+00  0.00000000E+00
  0.00000000E+00  0.00000000E+00  0.00000000E+00
  0.00000000E+00  0.00000000E+00  0.00000000E+00
  0.00000000E+00  0.00000000E+00  0.00000000E+00
  0.00000000E+00  0.00000000E+00  0.00000000E+00
  0.00000000E+00  0.00000000E+00  0.00000000E+00
  0.00000000E+00  0.00000000E+00  0.00000000E+00
  0.00000000E+00  0.00000000E+00  0.00000000E+00
  0.00000000E+00  0.00000000E+00  0.00000000E+00
  0.00000000E+00  0.00000000E+00  0.00000000E+00
  0.00000000E+00  0.00000000E+00  0.00000000E+00
