2 Te4                                   
   1.00000000000000     
     7.7533008777674493    0.0021094080552012   -0.0110246009079015
    -1.9374127012457580    3.3556871966688306    0.0000017739816708
    -0.0285941692208025   -0.0164814605273235   51.1416923362553817
   Mn   Zn   Sb   S 
     1     1     4     8
Direct
  0.3333330000000032  0.3333330000000032  0.3333330000000032
  0.8333330000000032  0.3333330000000032  0.3333330000000032
  0.9973557350826393  0.9973557361328097  0.3967373262153984
  0.5009536285604529  0.0009536257705583  0.3972265406568832
  0.1657133714395440  0.6657133742294313  0.2694404593431207
  0.6693112649173575  0.6693112638671871  0.2699296737846055
  0.3363520316926796  0.3363520301245788  0.4249912018402673
  0.8302673558782031  0.3302673608051729  0.4250539366823871
  0.3303139683073268  0.3303139698754276  0.2416747981597320
  0.8363986441218033  0.3363986391948335  0.2416120633176123
  0.9936723258975040  0.9936720695694633  0.3066250602761111
  0.5070471312224161  0.0070468753437624  0.3065141338382584
  0.1596198687775807  0.6596201246562343  0.3601528661617455
  0.6729946741024928  0.6729949304305335  0.3600419397238928
 
  0.00000000E+00  0.00000000E+00  0.00000000E+00
  0.00000000E+00  0.00000000E+00  0.00000000E+00
  0.00000000E+00  0.00000000E+00  0.00000000E+00
  0.00000000E+00  0.00000000E+00  0.00000000E+00
  0.00000000E+00  0.00000000E+00  0.00000000E+00
  0.00000000E+00  0.00000000E+00  0.00000000E+00
  0.00000000E+00  0.00000000E+00  0.00000000E+00
  0.00000000E+00  0.00000000E+00  0.00000000E+00
  0.00000000E+00  0.00000000E+00  0.00000000E+00
  0.00000000E+00  0.00000000E+00  0.00000000E+00
  0.00000000E+00  0.00000000E+00  0.00000000E+00
  0.00000000E+00  0.00000000E+00  0.00000000E+00
  0.00000000E+00  0.00000000E+00  0.00000000E+00
  0.00000000E+00  0.00000000E+00  0.00000000E+00
