2 Te4                                   
   1.00000000000000     
     8.9789700450251946   -0.0023503913806967    0.0137759244163351
    -2.2458146475637482    3.8790445438618057   -0.0029893525791267
     0.0925618065439089    0.0231813801279278   38.2144079334507012
   Mn   Y    Bi   Te
     1     1     4     8
Direct
  0.3333330000000032  0.3333330000000032  0.3333330000000032
  0.8333330000000032  0.3333330000000032  0.3333330000000032
  0.0020308738527843  0.0023963263817200  0.4334404489787428
  0.4979447823163085  0.9980975722271395  0.4382395887161109
  0.1687222176836882  0.6685694277728573  0.2284274112838931
  0.6646361261472123  0.6642706736182766  0.2332265510212612
  0.3261373571648390  0.3260613755362628  0.4799156583824146
  0.8389520378924591  0.3386956200223160  0.4778699116661348
  0.3405286428351674  0.3406046244637436  0.1867503416175847
  0.8277139621075473  0.3279703799776904  0.1887960883338645
  0.0108880443865019  0.0111888932066399  0.2880959263630685
  0.4868417751721492  0.9870951944228014  0.2904342441880010
  0.1798252248278474  0.6795718055771954  0.3762327558120029
  0.6557789556134948  0.6554781067933569  0.3785710736369354
 
  0.00000000E+00  0.00000000E+00  0.00000000E+00
  0.00000000E+00  0.00000000E+00  0.00000000E+00
  0.00000000E+00  0.00000000E+00  0.00000000E+00
  0.00000000E+00  0.00000000E+00  0.00000000E+00
  0.00000000E+00  0.00000000E+00  0.00000000E+00
  0.00000000E+00  0.00000000E+00  0.00000000E+00
  0.00000000E+00  0.00000000E+00  0.00000000E+00
  0.00000000E+00  0.00000000E+00  0.00000000E+00
  0.00000000E+00  0.00000000E+00  0.00000000E+00
  0.00000000E+00  0.00000000E+00  0.00000000E+00
  0.00000000E+00  0.00000000E+00  0.00000000E+00
  0.00000000E+00  0.00000000E+00  0.00000000E+00
  0.00000000E+00  0.00000000E+00  0.00000000E+00
  0.00000000E+00  0.00000000E+00  0.00000000E+00
