2 Te4                                   
   1.00000000000000     
     7.9040385259001811    0.1307589168557496    0.0394499020771399
    -1.9194030539930396    3.3267025911944890   -0.0058589362398454
    -0.1324819356354899   -0.1646322674744747   50.1319936327632831
   Mn   Ag   Sb   S 
     1     1     4     8
Direct
  0.3333330000000032  0.3333330000000032  0.3333330000000032
  0.8333330000000032  0.3333330000000032  0.3333330000000032
  0.0020493723003149  0.0014630288140526  0.4005712563868379
  0.4948558670836877  0.9952466388982222  0.3959462963890126
  0.1718111329163091  0.6714203611017746  0.2707207036109913
  0.6646176276996818  0.6652039711859441  0.2660957436131660
  0.3275134915357679  0.3278428795516864  0.4258443741938363
  0.8542793212577221  0.3544393935302773  0.4283690741449262
  0.3391525084642385  0.3388231204483200  0.2408216258061630
  0.8123866787422843  0.3122266064697291  0.2382969258550731
  0.0120764906814739  0.0136417840690420  0.3049624952818824
  0.4685037765548087  0.9696772525969393  0.3033346279908926
  0.1981632234451881  0.6969897474030575  0.3633323720091113
  0.6545905093185229  0.6530252159309546  0.3617045047181215
 
  0.00000000E+00  0.00000000E+00  0.00000000E+00
  0.00000000E+00  0.00000000E+00  0.00000000E+00
  0.00000000E+00  0.00000000E+00  0.00000000E+00
  0.00000000E+00  0.00000000E+00  0.00000000E+00
  0.00000000E+00  0.00000000E+00  0.00000000E+00
  0.00000000E+00  0.00000000E+00  0.00000000E+00
  0.00000000E+00  0.00000000E+00  0.00000000E+00
  0.00000000E+00  0.00000000E+00  0.00000000E+00
  0.00000000E+00  0.00000000E+00  0.00000000E+00
  0.00000000E+00  0.00000000E+00  0.00000000E+00
  0.00000000E+00  0.00000000E+00  0.00000000E+00
  0.00000000E+00  0.00000000E+00  0.00000000E+00
  0.00000000E+00  0.00000000E+00  0.00000000E+00
  0.00000000E+00  0.00000000E+00  0.00000000E+00
