2 Te4                                   
   1.00000000000000     
     8.0396889277836134    0.0249263402345872   -0.0131783946797291
    -1.9991295420569455    3.4626149523417999    0.0000159783548362
    -0.0232713482298880   -0.0132396691122070   47.7189933347413202
   Mn   Ru   Pb   Se
     1     1     4     8
Direct
  0.3333330000000032  0.3333330000000032  0.3333330000000032
  0.8333330000000032  0.3333330000000032  0.3333330000000032
  0.9967895641992455  0.9967903260423815  0.4108250585919309
  0.5015945185346327  0.0015954121781317  0.4099747621529887
  0.1650724814653642  0.6650715878218652  0.2566922378470152
  0.6698774358007513  0.6698766739576153  0.2558419414080730
  0.3346496698848905  0.3346490755066369  0.4435204388459744
  0.8302503591291190  0.3302494914932567  0.4444223348576812
  0.3320163301151159  0.3320169244933696  0.2231455611540249
  0.8364156408708874  0.3364165085067498  0.2222436651423181
  0.9731966784338072  0.9731966852165671  0.3063606710654345
  0.5181979633429896  0.0181959509994002  0.3056818504358331
  0.1484690366570073  0.6484710490005967  0.3609851495641708
  0.6934703215661896  0.6934703147834297  0.3603063289345694
 
  0.00000000E+00  0.00000000E+00  0.00000000E+00
  0.00000000E+00  0.00000000E+00  0.00000000E+00
  0.00000000E+00  0.00000000E+00  0.00000000E+00
  0.00000000E+00  0.00000000E+00  0.00000000E+00
  0.00000000E+00  0.00000000E+00  0.00000000E+00
  0.00000000E+00  0.00000000E+00  0.00000000E+00
  0.00000000E+00  0.00000000E+00  0.00000000E+00
  0.00000000E+00  0.00000000E+00  0.00000000E+00
  0.00000000E+00  0.00000000E+00  0.00000000E+00
  0.00000000E+00  0.00000000E+00  0.00000000E+00
  0.00000000E+00  0.00000000E+00  0.00000000E+00
  0.00000000E+00  0.00000000E+00  0.00000000E+00
  0.00000000E+00  0.00000000E+00  0.00000000E+00
  0.00000000E+00  0.00000000E+00  0.00000000E+00
