2 Te4                                   
   1.00000000000000     
     8.0771258692705050    0.0073921400261814    0.0110054262094278
    -2.0160733972793103    3.4813061078804282   -0.0006727909662035
     0.1495743845556498    0.0771056042083559   47.3024973087527911
   Mn   Sc   Bi   S 
     1     1     4     8
Direct
  0.3333330000000032  0.3333330000000032  0.3333330000000032
  0.8333330000000032  0.3333330000000032  0.3333330000000032
  0.0007400628651509  0.0012224675084070  0.4057333326093539
  0.4982236684047775  0.9984092021575324  0.4072861951872389
  0.1684433315952191  0.6682577978424644  0.2593808048127650
  0.6659269371348456  0.6654445324915900  0.2609336673906500
  0.3316131543120125  0.3311079740640271  0.4365714077168411
  0.8314616576290684  0.3312068181967758  0.4358353757296725
  0.3350528456879939  0.3355580259359793  0.2300945922831585
  0.8352043423709380  0.3354591818032306  0.2308306242703268
  0.9936502972973060  0.9939273880124934  0.3038972714337820
  0.5039092802085881  0.0032001999005320  0.3045837183485616
  0.1627577197914087  0.6634668000994642  0.3620832816514423
  0.6730167027026908  0.6727396119875034  0.3627697285662219
 
  0.00000000E+00  0.00000000E+00  0.00000000E+00
  0.00000000E+00  0.00000000E+00  0.00000000E+00
  0.00000000E+00  0.00000000E+00  0.00000000E+00
  0.00000000E+00  0.00000000E+00  0.00000000E+00
  0.00000000E+00  0.00000000E+00  0.00000000E+00
  0.00000000E+00  0.00000000E+00  0.00000000E+00
  0.00000000E+00  0.00000000E+00  0.00000000E+00
  0.00000000E+00  0.00000000E+00  0.00000000E+00
  0.00000000E+00  0.00000000E+00  0.00000000E+00
  0.00000000E+00  0.00000000E+00  0.00000000E+00
  0.00000000E+00  0.00000000E+00  0.00000000E+00
  0.00000000E+00  0.00000000E+00  0.00000000E+00
  0.00000000E+00  0.00000000E+00  0.00000000E+00
  0.00000000E+00  0.00000000E+00  0.00000000E+00
