2 Te4                                   
   1.00000000000000     
     7.9131024863021402   -0.0238389187673884   -0.0073442553726347
    -1.9885995790137863    3.4440896609763092   -0.0000536894607017
    -0.0715383518648639   -0.0420686627479385   48.9155122999965855
   Mn   Fe   Sn   Se
     1     1     4     8
Direct
  0.3333330000000032  0.3333330000000032  0.3333330000000032
  0.8333330000000032  0.3333330000000032  0.3333330000000032
  0.9998171991281248  0.9998174676176278  0.4046362182903217
  0.4998746442295123 -0.0001067866849213  0.4044863643014144
  0.1667923557704845  0.6667737866849179  0.2621806356985895
  0.6668498008718720  0.6668495323823761  0.2620307817096822
  0.3332175954574729  0.3332092184648468  0.4358468173858187
  0.8363828705649193  0.3363653854976426  0.4358324559292066
  0.3334484045425335  0.3334567815351596  0.2308191826141807
  0.8302831294350871  0.3303006145023639  0.2308335440707927
  0.9906494409499931  0.9906921848715926  0.3037656977101603
  0.5072203316799198  0.0071927719067101  0.3028947532310904
  0.1594466683200771  0.6594742280932866  0.3637722467689135
  0.6760175590500037  0.6759748151284042  0.3629013022898436
 
  0.00000000E+00  0.00000000E+00  0.00000000E+00
  0.00000000E+00  0.00000000E+00  0.00000000E+00
  0.00000000E+00  0.00000000E+00  0.00000000E+00
  0.00000000E+00  0.00000000E+00  0.00000000E+00
  0.00000000E+00  0.00000000E+00  0.00000000E+00
  0.00000000E+00  0.00000000E+00  0.00000000E+00
  0.00000000E+00  0.00000000E+00  0.00000000E+00
  0.00000000E+00  0.00000000E+00  0.00000000E+00
  0.00000000E+00  0.00000000E+00  0.00000000E+00
  0.00000000E+00  0.00000000E+00  0.00000000E+00
  0.00000000E+00  0.00000000E+00  0.00000000E+00
  0.00000000E+00  0.00000000E+00  0.00000000E+00
  0.00000000E+00  0.00000000E+00  0.00000000E+00
  0.00000000E+00  0.00000000E+00  0.00000000E+00
