2 Te4                                   
   1.00000000000000     
     7.8357145705140425    0.0183372021576700   -0.0166047360381166
    -1.9509892494018541    3.3792701515229617    0.0000004612517864
    -0.0320972203474353   -0.0185361509268656   50.1907681413354609
   Mn   Tc   Sb   S 
     1     1     4     8
Direct
  0.3333330000000032  0.3333330000000032  0.3333330000000032
  0.8333330000000032  0.3333330000000032  0.3333330000000032
  0.0002524740857195  0.0002551071707875  0.4010535527928488
  0.4939824778860715  0.9939887147521551  0.3992827446991287
  0.1726845221139253  0.6726782852478417  0.2673842553008752
  0.6664145259142772  0.6664118928292094  0.2656134472071551
  0.3291402902026740  0.3291543534690691  0.4282370659326468
  0.8389115810950496  0.3389054958433142  0.4286705316045869
  0.3375257097973324  0.3375116465309373  0.2384289340673525
  0.8277544189049568  0.3277605041566922  0.2379954683954124
  0.0078234773562619  0.0078362063890106  0.3041772440544191
  0.4892338371850760  0.9892398389746158  0.3041096547470634
  0.1774331628149207  0.6774271610253810  0.3625573452529405
  0.6588435226437349  0.6588307936109863  0.3624897559455848
 
  0.00000000E+00  0.00000000E+00  0.00000000E+00
  0.00000000E+00  0.00000000E+00  0.00000000E+00
  0.00000000E+00  0.00000000E+00  0.00000000E+00
  0.00000000E+00  0.00000000E+00  0.00000000E+00
  0.00000000E+00  0.00000000E+00  0.00000000E+00
  0.00000000E+00  0.00000000E+00  0.00000000E+00
  0.00000000E+00  0.00000000E+00  0.00000000E+00
  0.00000000E+00  0.00000000E+00  0.00000000E+00
  0.00000000E+00  0.00000000E+00  0.00000000E+00
  0.00000000E+00  0.00000000E+00  0.00000000E+00
  0.00000000E+00  0.00000000E+00  0.00000000E+00
  0.00000000E+00  0.00000000E+00  0.00000000E+00
  0.00000000E+00  0.00000000E+00  0.00000000E+00
  0.00000000E+00  0.00000000E+00  0.00000000E+00
