2 Te4                                   
   1.00000000000000     
     8.0890061511932849    0.0293927478693520    0.0028110816582251
    -2.0095272446143637    3.4815033075769062   -0.0014610279462775
     0.0097321504317215   -0.0138104758407017   47.1562348045166999
   Mn   Tc   Pb   Se
     1     1     4     8
Direct
  0.3333330000000032  0.3333330000000032  0.3333330000000032
  0.8333330000000032  0.3333330000000032  0.3333330000000032
  0.0009775755875022  0.0007949908073809  0.4145713360578888
  0.4996976792956745 -0.0003937164373897  0.4149980297926470
  0.1669693207043222  0.6670607164373865  0.2516689702073568
  0.6656894244124947  0.6658720091926159  0.2520956639421151
  0.3335500734961902  0.3336035421034557  0.4485254116051580
  0.8324324486469949  0.3323823390240506  0.4483103629494926
  0.3331159265038162  0.3330624578965508  0.2181405883948414
  0.8342335513530115  0.3342836609759558  0.2183556370505067
  0.9859161869093668  0.9857856016668172  0.3042604494538080
  0.5124489224082855  0.0123305871331327  0.3043432741170394
  0.1542180775917113  0.6543364128668641  0.3623237258829645
  0.6807508130906300  0.6808813983331796  0.3624065505461959
 
  0.00000000E+00  0.00000000E+00  0.00000000E+00
  0.00000000E+00  0.00000000E+00  0.00000000E+00
  0.00000000E+00  0.00000000E+00  0.00000000E+00
  0.00000000E+00  0.00000000E+00  0.00000000E+00
  0.00000000E+00  0.00000000E+00  0.00000000E+00
  0.00000000E+00  0.00000000E+00  0.00000000E+00
  0.00000000E+00  0.00000000E+00  0.00000000E+00
  0.00000000E+00  0.00000000E+00  0.00000000E+00
  0.00000000E+00  0.00000000E+00  0.00000000E+00
  0.00000000E+00  0.00000000E+00  0.00000000E+00
  0.00000000E+00  0.00000000E+00  0.00000000E+00
  0.00000000E+00  0.00000000E+00  0.00000000E+00
  0.00000000E+00  0.00000000E+00  0.00000000E+00
  0.00000000E+00  0.00000000E+00  0.00000000E+00
