2 Te4                                   
   1.00000000000000     
     8.6313003138369773   -0.0058511364282283   -0.0014627515442466
    -2.1603596096123652    3.7418417913072721   -0.0000016883689134
    -0.0073160543914528   -0.0042467128311563   41.2210770402386473
   Mn   Nb   Sb   Te
     1     1     4     8
Direct
  0.3333330000000032  0.3333330000000032  0.3333330000000032
  0.8333330000000032  0.3333330000000032  0.3333330000000032
  0.9993808246978793  0.9993807295418240  0.4218042570551769
  0.5013562116586547  0.0013564376692981  0.4245274092195370
  0.1653107883413422  0.6653105623306987  0.2421395907804669
  0.6672861753021175  0.6672862704581728  0.2448627429448270
  0.3318370945483299  0.3318363069859823  0.4640098147680041
  0.8342836193526790  0.3342831245951083  0.4633671196330455
  0.3348289054516765  0.3348296930140241  0.2026561852319953
  0.8323823806473274  0.3323828754048981  0.2032988803669538
  0.0006217774432168  0.0006202460482473  0.2939914713331239
  0.4992317199653546  0.9992301027457584  0.2941022295017890
  0.1674352800346421  0.6674368972542384  0.3725647704982149
  0.6660452225567799  0.6660467539517495  0.3726755286668800
 
  0.00000000E+00  0.00000000E+00  0.00000000E+00
  0.00000000E+00  0.00000000E+00  0.00000000E+00
  0.00000000E+00  0.00000000E+00  0.00000000E+00
  0.00000000E+00  0.00000000E+00  0.00000000E+00
  0.00000000E+00  0.00000000E+00  0.00000000E+00
  0.00000000E+00  0.00000000E+00  0.00000000E+00
  0.00000000E+00  0.00000000E+00  0.00000000E+00
  0.00000000E+00  0.00000000E+00  0.00000000E+00
  0.00000000E+00  0.00000000E+00  0.00000000E+00
  0.00000000E+00  0.00000000E+00  0.00000000E+00
  0.00000000E+00  0.00000000E+00  0.00000000E+00
  0.00000000E+00  0.00000000E+00  0.00000000E+00
  0.00000000E+00  0.00000000E+00  0.00000000E+00
  0.00000000E+00  0.00000000E+00  0.00000000E+00
