2 Te4                                   
   1.00000000000000     
     7.8743386484007507    0.0188289725535615   -0.0480896391457539
    -1.9604347678945870    3.3971349734880465    0.0001841352711341
    -0.1227389045129960   -0.0682303403781138   49.6813970969191985
   Mn   Ag   Pb   S 
     1     1     4     8
Direct
  0.3333330000000032  0.3333330000000032  0.3333330000000032
  0.8333330000000032  0.3333330000000032  0.3333330000000032
  0.9995121542064921  0.9994888458817103  0.4004308890302747
  0.5007348134254647  0.0007903600692733  0.3993490405561372
  0.1659321865745322  0.6658766399307234  0.2673179594438667
  0.6671548457935047  0.6671781541182865  0.2662361109697292
  0.3410525167419395  0.3408608014407375  0.4295326812247153
  0.8280911280754502  0.3282323724174649  0.4299728880475697
  0.3256134832580669  0.3258051985592689  0.2371333187752840
  0.8385748719245563  0.3384336275825415  0.2366931119524297
  0.0174111634897762  0.0175345307931498  0.3044112953548025
  0.4869724606751618  0.9866773439167367  0.3058871828151071
  0.1796945393248350  0.6799896560832601  0.3607798171848968
  0.6492558365102207  0.6491324692068470  0.3622557046452014
 
  0.00000000E+00  0.00000000E+00  0.00000000E+00
  0.00000000E+00  0.00000000E+00  0.00000000E+00
  0.00000000E+00  0.00000000E+00  0.00000000E+00
  0.00000000E+00  0.00000000E+00  0.00000000E+00
  0.00000000E+00  0.00000000E+00  0.00000000E+00
  0.00000000E+00  0.00000000E+00  0.00000000E+00
  0.00000000E+00  0.00000000E+00  0.00000000E+00
  0.00000000E+00  0.00000000E+00  0.00000000E+00
  0.00000000E+00  0.00000000E+00  0.00000000E+00
  0.00000000E+00  0.00000000E+00  0.00000000E+00
  0.00000000E+00  0.00000000E+00  0.00000000E+00
  0.00000000E+00  0.00000000E+00  0.00000000E+00
  0.00000000E+00  0.00000000E+00  0.00000000E+00
  0.00000000E+00  0.00000000E+00  0.00000000E+00
