2 Te4                                   
   1.00000000000000     
     8.5839631012119781    0.0017023143888165   -0.0089102387800642
    -2.1451479722875697    3.7319124991013175    0.0087453287488435
    -0.0331763178009080    0.0637765870202641   41.5378183725092995
   Mn   Ru   Sb   Te
     1     1     4     8
Direct
  0.3333330000000032  0.3333330000000032  0.3333330000000032
  0.8333330000000032  0.3333330000000032  0.3333330000000032
  0.0000044253774294 -0.0001851351404861  0.4219933147713485
  0.4995081850224100  0.0010890387586427  0.4207582539693009
  0.1671588149775869  0.6655779612413538  0.2459087460307031
  0.6666625746225676  0.6668521351404831  0.2446736852286555
  0.3340622221854949  0.3325614719336507  0.4617546074188443
  0.8323514160835163  0.3324020321533014  0.4621013183728582
  0.3326037778145116  0.3341045280663558  0.2049113925811551
  0.8343145839164902  0.3342639678467050  0.2045646816271409
  0.9962057061178254  0.9977233670505837  0.2953443989770139
  0.5033847550922036  0.0002193512082855  0.2951501297989155
  0.1632822449077931  0.6664476487917114  0.3715168702010884
  0.6704612938821713  0.6689436329494131  0.3713226010229900
 
  0.00000000E+00  0.00000000E+00  0.00000000E+00
  0.00000000E+00  0.00000000E+00  0.00000000E+00
  0.00000000E+00  0.00000000E+00  0.00000000E+00
  0.00000000E+00  0.00000000E+00  0.00000000E+00
  0.00000000E+00  0.00000000E+00  0.00000000E+00
  0.00000000E+00  0.00000000E+00  0.00000000E+00
  0.00000000E+00  0.00000000E+00  0.00000000E+00
  0.00000000E+00  0.00000000E+00  0.00000000E+00
  0.00000000E+00  0.00000000E+00  0.00000000E+00
  0.00000000E+00  0.00000000E+00  0.00000000E+00
  0.00000000E+00  0.00000000E+00  0.00000000E+00
  0.00000000E+00  0.00000000E+00  0.00000000E+00
  0.00000000E+00  0.00000000E+00  0.00000000E+00
  0.00000000E+00  0.00000000E+00  0.00000000E+00
