2 Te4                                   
   1.00000000000000     
     7.7391103073006704   -0.0547842152867966   -0.0429868477404424
    -1.9585019689842644    3.3919759483644198    0.0000688703601131
     0.2033371430189745    0.1184307599617133   50.9017803545029395
   Mn   Cr   Sb   S 
     1     1     4     8
Direct
  0.3333330000000032  0.3333330000000032  0.3333330000000032
  0.8333330000000032  0.3333330000000032  0.3333330000000032
  0.9985730191103371  0.9985802508669192  0.3978577252988149
  0.5005791037234506  0.0005271431299963  0.3982998557800809
  0.1660878962765391  0.6661398568700003  0.2683671442199230
  0.6680939808896597  0.6680867491330776  0.2688092747011890
  0.3292458678645209  0.3292955441924026  0.4263969816168990
  0.8268571192792251  0.3268528223532501  0.4260354054639749
  0.3374201321354856  0.3373704558076038  0.2402690183831002
  0.8398088807207813  0.3398131776467563  0.2406305945360244
  0.0061365063506723  0.0060454799170786  0.3049774168786063
  0.5146859229111121  0.0146731289357246  0.3064499568422053
  0.1519810770888847  0.6519938710642721  0.3602170431577986
  0.6605304936493245  0.6606215200829183  0.3616895831213976
 
  0.00000000E+00  0.00000000E+00  0.00000000E+00
  0.00000000E+00  0.00000000E+00  0.00000000E+00
  0.00000000E+00  0.00000000E+00  0.00000000E+00
  0.00000000E+00  0.00000000E+00  0.00000000E+00
  0.00000000E+00  0.00000000E+00  0.00000000E+00
  0.00000000E+00  0.00000000E+00  0.00000000E+00
  0.00000000E+00  0.00000000E+00  0.00000000E+00
  0.00000000E+00  0.00000000E+00  0.00000000E+00
  0.00000000E+00  0.00000000E+00  0.00000000E+00
  0.00000000E+00  0.00000000E+00  0.00000000E+00
  0.00000000E+00  0.00000000E+00  0.00000000E+00
  0.00000000E+00  0.00000000E+00  0.00000000E+00
  0.00000000E+00  0.00000000E+00  0.00000000E+00
  0.00000000E+00  0.00000000E+00  0.00000000E+00
