2 Te4                                   
   1.00000000000000     
     8.7118438162356906    0.0853766666612938    0.0070993776757288
    -2.1409934347009374    3.7083367933658398    0.0000158635265504
     0.0369455685686663    0.0215164644774489   40.9611182596935137
   Mn   Mo   Sb   Te
     1     1     4     8
Direct
  0.3333330000000032  0.3333330000000032  0.3333330000000032
  0.8333330000000032  0.3333330000000032  0.3333330000000032
  0.9939143520071955  0.9939151446118890  0.4238660606693767
  0.4890292544856047  0.9890296132494072  0.4234395181048442
  0.1776377455143921  0.6776373867505896  0.2432274818951596
  0.6727526479928013  0.6727518553881078  0.2428009393306271
  0.3327016705252592  0.3327011566435093  0.4638677864639865
  0.8400455287793969  0.3400444522592695  0.4647734359589601
  0.3339643294747472  0.3339648433564971  0.2027982135360128
  0.8266204712206096  0.3266215477407369  0.2018925640410392
  0.9928614605864735  0.9928579077221642  0.2950049971955538
  0.4869288769667885  0.9869267034582820  0.2930315809876289
  0.1797381230332082  0.6797402965417148  0.3736354190123750
  0.6738055394135233  0.6738090922778326  0.3716620028044501
 
  0.00000000E+00  0.00000000E+00  0.00000000E+00
  0.00000000E+00  0.00000000E+00  0.00000000E+00
  0.00000000E+00  0.00000000E+00  0.00000000E+00
  0.00000000E+00  0.00000000E+00  0.00000000E+00
  0.00000000E+00  0.00000000E+00  0.00000000E+00
  0.00000000E+00  0.00000000E+00  0.00000000E+00
  0.00000000E+00  0.00000000E+00  0.00000000E+00
  0.00000000E+00  0.00000000E+00  0.00000000E+00
  0.00000000E+00  0.00000000E+00  0.00000000E+00
  0.00000000E+00  0.00000000E+00  0.00000000E+00
  0.00000000E+00  0.00000000E+00  0.00000000E+00
  0.00000000E+00  0.00000000E+00  0.00000000E+00
  0.00000000E+00  0.00000000E+00  0.00000000E+00
  0.00000000E+00  0.00000000E+00  0.00000000E+00
