2 Te4                                   
   1.00000000000000     
     7.9333782184361699   -0.0027630954088542   -0.0010577516626978
    -1.9845418943598170    3.4373218293628010    0.0000057175943047
     0.0103555751244866    0.0060696156522245   48.8112492579951507
   Mn   V    Bi   S 
     1     1     4     8
Direct
  0.3333330000000032  0.3333330000000032  0.3333330000000032
  0.8333330000000032  0.3333330000000032  0.3333330000000032
  0.9985109799376333  0.9985112979269656  0.4013426637644455
  0.5006713465477332  0.0006710214372118  0.4021282020586470
  0.1659956534522636  0.6659959785627851  0.2645387979413569
  0.6681560200623635  0.6681557020730312  0.2653243362355584
  0.3342306892016472  0.3342298645103109  0.4321078026850356
  0.8317044043389538  0.3317037162811375  0.4320665543788680
  0.3324353107983593  0.3324361354896955  0.2345581973149637
  0.8349615956610527  0.3349622837188689  0.2345994456211313
  0.9980162101197921  0.9980164994539978  0.3055325867304511
  0.5025373489605230  0.0025373717567850  0.3052236767993207
  0.1641296510394736  0.6641296282432118  0.3614433232006832
  0.6686507898802047  0.6686505005459989  0.3611344132695528
 
  0.00000000E+00  0.00000000E+00  0.00000000E+00
  0.00000000E+00  0.00000000E+00  0.00000000E+00
  0.00000000E+00  0.00000000E+00  0.00000000E+00
  0.00000000E+00  0.00000000E+00  0.00000000E+00
  0.00000000E+00  0.00000000E+00  0.00000000E+00
  0.00000000E+00  0.00000000E+00  0.00000000E+00
  0.00000000E+00  0.00000000E+00  0.00000000E+00
  0.00000000E+00  0.00000000E+00  0.00000000E+00
  0.00000000E+00  0.00000000E+00  0.00000000E+00
  0.00000000E+00  0.00000000E+00  0.00000000E+00
  0.00000000E+00  0.00000000E+00  0.00000000E+00
  0.00000000E+00  0.00000000E+00  0.00000000E+00
  0.00000000E+00  0.00000000E+00  0.00000000E+00
  0.00000000E+00  0.00000000E+00  0.00000000E+00
