2 Te4                                   
   1.00000000000000     
     8.4730251746824550   -0.0097285370660013    0.0061136209964611
    -2.1224719996672263    3.6749912712158479   -0.0003108454921091
     0.0261309281129607    0.0117701216062391   42.7665744963687970
   Mn   Tc   Sn   Te
     1     1     4     8
Direct
  0.3333330000000032  0.3333330000000032  0.3333330000000032
  0.8333330000000032  0.3333330000000032  0.3333330000000032
  0.0008386464826177  0.0008151570674473  0.4235225879993109
  0.5007390071477661  0.0007676240595021  0.4254678536621895
  0.1659279928522308  0.6658993759404948  0.2411991463378143
  0.6658283535173789  0.6658518429325496  0.2431444120006930
  0.3319917542246743  0.3319705471818819  0.4634076272114072
  0.8354706444402717  0.3354226474468231  0.4631670187628182
  0.3346742457753321  0.3346954528181245  0.2032583727885921
  0.8311953555597347  0.3312433525531833  0.2034989812371811
  0.9922777964446829  0.9922687716668965  0.2977406368476042
  0.5096629241791863  0.0095189397540000  0.2966131847149008
  0.1570040758208104  0.6571480602459968  0.3700538152851031
  0.6743892035553138  0.6743982283331003  0.3689263631523997
 
  0.00000000E+00  0.00000000E+00  0.00000000E+00
  0.00000000E+00  0.00000000E+00  0.00000000E+00
  0.00000000E+00  0.00000000E+00  0.00000000E+00
  0.00000000E+00  0.00000000E+00  0.00000000E+00
  0.00000000E+00  0.00000000E+00  0.00000000E+00
  0.00000000E+00  0.00000000E+00  0.00000000E+00
  0.00000000E+00  0.00000000E+00  0.00000000E+00
  0.00000000E+00  0.00000000E+00  0.00000000E+00
  0.00000000E+00  0.00000000E+00  0.00000000E+00
  0.00000000E+00  0.00000000E+00  0.00000000E+00
  0.00000000E+00  0.00000000E+00  0.00000000E+00
  0.00000000E+00  0.00000000E+00  0.00000000E+00
  0.00000000E+00  0.00000000E+00  0.00000000E+00
  0.00000000E+00  0.00000000E+00  0.00000000E+00
