2 Te4                                   
   1.00000000000000     
     8.1928526623005720    0.0073400897234277   -0.0204598668292292
    -2.0450355196864862    3.5416485916018789   -0.0000807769599538
    -0.1279090376440574   -0.0747777812781748   45.8405472549164088
   Mn   Cd   Pb   Se
     1     1     4     8
Direct
  0.3333330000000032  0.3333330000000032  0.3333330000000032
  0.8333330000000032  0.3333330000000032  0.3333330000000032
  0.9977024385002365  0.9977029927160633  0.4119448773921326
  0.4999357895103168 -0.0000424075082670  0.4122368436686024
  0.1667312104896800  0.6667094075082637  0.2544301563314015
  0.6689645614997602  0.6689640072839335  0.2547221226078712
  0.3344388529111909  0.3343909740977635  0.4464447392748790
  0.8325984947746751  0.3325960478810976  0.4466319056321487
  0.3322271470888155  0.3322750259022429  0.2202212607251204
  0.8340675052253314  0.3340699521189088  0.2200340943678507
  0.0128529325527111  0.0128188756318226  0.3006552184116192
  0.4844985662534191  0.9844331123400858  0.3022244187637717
  0.1821684337465777  0.6822338876599110  0.3644425812362322
  0.6538140674472857  0.6538481243681742  0.3660117815883847
 
  0.00000000E+00  0.00000000E+00  0.00000000E+00
  0.00000000E+00  0.00000000E+00  0.00000000E+00
  0.00000000E+00  0.00000000E+00  0.00000000E+00
  0.00000000E+00  0.00000000E+00  0.00000000E+00
  0.00000000E+00  0.00000000E+00  0.00000000E+00
  0.00000000E+00  0.00000000E+00  0.00000000E+00
  0.00000000E+00  0.00000000E+00  0.00000000E+00
  0.00000000E+00  0.00000000E+00  0.00000000E+00
  0.00000000E+00  0.00000000E+00  0.00000000E+00
  0.00000000E+00  0.00000000E+00  0.00000000E+00
  0.00000000E+00  0.00000000E+00  0.00000000E+00
  0.00000000E+00  0.00000000E+00  0.00000000E+00
  0.00000000E+00  0.00000000E+00  0.00000000E+00
  0.00000000E+00  0.00000000E+00  0.00000000E+00
