2 Te4                                   
   1.00000000000000     
     8.5842604201015931    0.0283192989395764   -0.0197860682280878
    -2.1338015354842477    3.6956348520057061    0.0002243848901962
    -0.1534007793397704   -0.0860984504490133   41.8694603043620646
   Mn   Fe   Pb   Te
     1     1     4     8
Direct
  0.3333330000000032  0.3333330000000032  0.3333330000000032
  0.8333330000000032  0.3333330000000032  0.3333330000000032
  0.9992223522152260  0.9992125780825617  0.4279413350726222
  0.4989390813566195 -0.0010709475572686  0.4272821886223258
  0.1677279186433774  0.6677379475572651  0.2393848113776779
  0.6674446477847708  0.6674544219174351  0.2387256649273818
  0.3356808028246412  0.3356954826478356  0.4695612878294977
  0.8307481251659137  0.3307625219276141  0.4698896523801698
  0.3309851971753652  0.3309705173521709  0.1971047121705017
  0.8359178748340927  0.3359034780723923  0.1967763476198224
  0.9912286797027233  0.9912225481925069  0.2978859624241298
  0.5051872926049755  0.0051864851317812  0.2973025679272512
  0.1614797073950212  0.6614805148682157  0.3693644320727527
  0.6754383202972735  0.6754444518074899  0.3687810375758740
 
  0.00000000E+00  0.00000000E+00  0.00000000E+00
  0.00000000E+00  0.00000000E+00  0.00000000E+00
  0.00000000E+00  0.00000000E+00  0.00000000E+00
  0.00000000E+00  0.00000000E+00  0.00000000E+00
  0.00000000E+00  0.00000000E+00  0.00000000E+00
  0.00000000E+00  0.00000000E+00  0.00000000E+00
  0.00000000E+00  0.00000000E+00  0.00000000E+00
  0.00000000E+00  0.00000000E+00  0.00000000E+00
  0.00000000E+00  0.00000000E+00  0.00000000E+00
  0.00000000E+00  0.00000000E+00  0.00000000E+00
  0.00000000E+00  0.00000000E+00  0.00000000E+00
  0.00000000E+00  0.00000000E+00  0.00000000E+00
  0.00000000E+00  0.00000000E+00  0.00000000E+00
  0.00000000E+00  0.00000000E+00  0.00000000E+00
