2 Te4                                   
   1.00000000000000     
     7.8651152271983920    0.0216346692575436   -0.0529084595353211
    -1.9569114737908553    3.3895781543137997    0.0001280583941997
    -0.1806788617523556   -0.1026811820035968   49.8408086657262501
   Mn   Zr   Pb   S 
     1     1     4     8
Direct
  0.3333330000000032  0.3333330000000032  0.3333330000000032
  0.8333330000000032  0.3333330000000032  0.3333330000000032
  0.0102862464982318  0.0102828464524266  0.4086018592377804
  0.5021789559425289  0.0021472746577074  0.4101875593979832
  0.1644880440574677  0.6645197253422896  0.2564794406020207
  0.6563807535017647  0.6563841535475773  0.2580651407622235
  0.3384435912689067  0.3383758394152462  0.4397091183606897
  0.8450927472790667  0.3450550136428840  0.4380770671129447
  0.3282224087310998  0.3282901605847602  0.2269568816393097
  0.8215732527209397  0.3216109863571224  0.2285889328870545
  0.9853480640586962  0.9853764242876137  0.3048127630649172
  0.5022840455138229  0.0023251976967285  0.3062484912569570
  0.1643829544861740  0.6643418023032683  0.3604185087430469
  0.6813189359413006  0.6812905757123831  0.3618542369350867
 
  0.00000000E+00  0.00000000E+00  0.00000000E+00
  0.00000000E+00  0.00000000E+00  0.00000000E+00
  0.00000000E+00  0.00000000E+00  0.00000000E+00
  0.00000000E+00  0.00000000E+00  0.00000000E+00
  0.00000000E+00  0.00000000E+00  0.00000000E+00
  0.00000000E+00  0.00000000E+00  0.00000000E+00
  0.00000000E+00  0.00000000E+00  0.00000000E+00
  0.00000000E+00  0.00000000E+00  0.00000000E+00
  0.00000000E+00  0.00000000E+00  0.00000000E+00
  0.00000000E+00  0.00000000E+00  0.00000000E+00
  0.00000000E+00  0.00000000E+00  0.00000000E+00
  0.00000000E+00  0.00000000E+00  0.00000000E+00
  0.00000000E+00  0.00000000E+00  0.00000000E+00
  0.00000000E+00  0.00000000E+00  0.00000000E+00
