2 Te4                                   
   1.00000000000000     
     8.6679335240820024   -0.0291696833067850    0.0190159931137251
    -2.1796173104797609    3.7742368548934677   -0.0001953956236500
     0.0608771720524762    0.0346775917578385   40.7580077771220317
   Mn   Cd   Pb   Te
     1     1     4     8
Direct
  0.3333330000000032  0.3333330000000032  0.3333330000000032
  0.8333330000000032  0.3333330000000032  0.3333330000000032
  0.9995051958278467  0.9994217158875899  0.4293849845566345
  0.5002216609513745  0.0003902759901861  0.4297113581707113
  0.1664453390486223  0.6662767240098106  0.2369556418292926
  0.6671618041721501  0.6672452841124069  0.2372820154433693
  0.3316357642397678  0.3316954876659937  0.4723375121043978
  0.8344731028848816  0.3342447639004247  0.4721635594995233
  0.3350302357602386  0.3349705123340128  0.1943284878956016
  0.8321928971151248  0.3324212360995817  0.1945024405004762
  0.0104850393050406  0.0102321658746481  0.2935971238491478
  0.4865289056510553  0.9864660060328470  0.2953912408221635
  0.1801380943489416  0.6802009939671498  0.3712757591778404
  0.6561819606949563  0.6564348341253485  0.3730698761508561
 
  0.00000000E+00  0.00000000E+00  0.00000000E+00
  0.00000000E+00  0.00000000E+00  0.00000000E+00
  0.00000000E+00  0.00000000E+00  0.00000000E+00
  0.00000000E+00  0.00000000E+00  0.00000000E+00
  0.00000000E+00  0.00000000E+00  0.00000000E+00
  0.00000000E+00  0.00000000E+00  0.00000000E+00
  0.00000000E+00  0.00000000E+00  0.00000000E+00
  0.00000000E+00  0.00000000E+00  0.00000000E+00
  0.00000000E+00  0.00000000E+00  0.00000000E+00
  0.00000000E+00  0.00000000E+00  0.00000000E+00
  0.00000000E+00  0.00000000E+00  0.00000000E+00
  0.00000000E+00  0.00000000E+00  0.00000000E+00
  0.00000000E+00  0.00000000E+00  0.00000000E+00
  0.00000000E+00  0.00000000E+00  0.00000000E+00
