2 Te4                                   
   1.00000000000000     
     8.4816245176418885    0.0204411122017071   -0.0501301262511955
    -2.1101754300181690    3.6613792225801447    0.0024750746233243
    -0.2597109840015830   -0.1320709146400120   42.7960418680035914
   Mn   Co   Pb   Te
     1     1     4     8
Direct
  0.3333330000000032  0.3333330000000032  0.3333330000000032
  0.8333330000000032  0.3333330000000032  0.3333330000000032
  0.9956035958068011  0.9953069104780312  0.4260816940052982
  0.5005342292622273  0.0005601002125454  0.4242473456202764
  0.1661327707377692  0.6661068997874517  0.2424196543797275
  0.6710634041931957  0.6713600895219656  0.2405853059947058
  0.3381060016959775  0.3381617890732772  0.4660649041891634
  0.8292796911421385  0.3290366653009161  0.4676685870614495
  0.3285599983040289  0.3285042109267292  0.2006010958108361
  0.8373863088578679  0.3376293346990903  0.1989974129385496
  0.9801799276166204  0.9794747173296958  0.3023539095348541
  0.5177554526442911  0.0169475211488658  0.3001085208204055
  0.1489115473557059  0.6497194788511309  0.3665584791795984
  0.6864870723833764  0.6871922826703010  0.3643130904651498
 
  0.00000000E+00  0.00000000E+00  0.00000000E+00
  0.00000000E+00  0.00000000E+00  0.00000000E+00
  0.00000000E+00  0.00000000E+00  0.00000000E+00
  0.00000000E+00  0.00000000E+00  0.00000000E+00
  0.00000000E+00  0.00000000E+00  0.00000000E+00
  0.00000000E+00  0.00000000E+00  0.00000000E+00
  0.00000000E+00  0.00000000E+00  0.00000000E+00
  0.00000000E+00  0.00000000E+00  0.00000000E+00
  0.00000000E+00  0.00000000E+00  0.00000000E+00
  0.00000000E+00  0.00000000E+00  0.00000000E+00
  0.00000000E+00  0.00000000E+00  0.00000000E+00
  0.00000000E+00  0.00000000E+00  0.00000000E+00
  0.00000000E+00  0.00000000E+00  0.00000000E+00
  0.00000000E+00  0.00000000E+00  0.00000000E+00
