2 Te4                                   
   1.00000000000000     
     8.6669987937219517   -0.0007842505290303   -0.0041878273579637
    -2.1670903067647469    3.7535183110315615    0.0000062539666136
    -0.0177808697422239   -0.0101920175858549   40.9097185764132902
   Mn   Ni   Bi   Te
     1     1     4     8
Direct
  0.3333330000000032  0.3333330000000032  0.3333330000000032
  0.8333330000000032  0.3333330000000032  0.3333330000000032
  0.9984945881764540  0.9984947756803084  0.4233986003872325
  0.5019472280993073  0.0019475797356531  0.4218617699398884
  0.1647197719006894  0.6647194202643437  0.2448052300601155
  0.6681724118235428  0.6681722243196884  0.2432683996127714
  0.3380646735603489  0.3380644912532444  0.4651371789122933
  0.8280678123780802  0.3280680096042793  0.4662520619588617
  0.3286013264396576  0.3286015087467620  0.2015288210877060
  0.8385981876219262  0.3385979903957271  0.2004139380411376
  0.9872555220888398  0.9872559211889316  0.2984330808980569
  0.5151217077964841  0.0151204765031654  0.2969477786849125
  0.1515452922035127  0.6515465234968315  0.3697192213150914
  0.6794114779111570  0.6794110788110652  0.3682339191019470
 
  0.00000000E+00  0.00000000E+00  0.00000000E+00
  0.00000000E+00  0.00000000E+00  0.00000000E+00
  0.00000000E+00  0.00000000E+00  0.00000000E+00
  0.00000000E+00  0.00000000E+00  0.00000000E+00
  0.00000000E+00  0.00000000E+00  0.00000000E+00
  0.00000000E+00  0.00000000E+00  0.00000000E+00
  0.00000000E+00  0.00000000E+00  0.00000000E+00
  0.00000000E+00  0.00000000E+00  0.00000000E+00
  0.00000000E+00  0.00000000E+00  0.00000000E+00
  0.00000000E+00  0.00000000E+00  0.00000000E+00
  0.00000000E+00  0.00000000E+00  0.00000000E+00
  0.00000000E+00  0.00000000E+00  0.00000000E+00
  0.00000000E+00  0.00000000E+00  0.00000000E+00
  0.00000000E+00  0.00000000E+00  0.00000000E+00
