2 Te4                                   
   1.00000000000000     
     7.9703121549477292   -0.0005839922539288   -0.0197435239459111
    -1.9928317399008368    3.4516113939659534    0.0000104944335831
    -0.0853524774137766   -0.0491770135464356   48.3765209898577382
   Mn   Ag   Sn   Se
     1     1     4     8
Direct
  0.3333330000000032  0.3333330000000032  0.3333330000000032
  0.8333330000000032  0.3333330000000032  0.3333330000000032
  0.9992810674842653  0.9993222228413426  0.4052594540976076
  0.4986542255928460  0.9986351603234441  0.4033547154427594
  0.1680127744071507  0.6680318396765527  0.2633122845572445
  0.6673859325157315  0.6673447771586541  0.2614075459023963
  0.3390343921652401  0.3390017412283786  0.4355666099986427
  0.8266280688233189  0.3266528188564909  0.4359408102610466
  0.3276316078347663  0.3276642587716279  0.2310993900013565
  0.8400379311766876  0.3400131811435155  0.2307251897389527
  0.0135657923230263  0.0135524614966375  0.3000851429807468
  0.4924208279342154  0.9924463798141304  0.3013875495910638
  0.1742461720657814  0.6742206201858664  0.3652794504089401
  0.6531012076769707  0.6531145385033593  0.3665818570192571
 
  0.00000000E+00  0.00000000E+00  0.00000000E+00
  0.00000000E+00  0.00000000E+00  0.00000000E+00
  0.00000000E+00  0.00000000E+00  0.00000000E+00
  0.00000000E+00  0.00000000E+00  0.00000000E+00
  0.00000000E+00  0.00000000E+00  0.00000000E+00
  0.00000000E+00  0.00000000E+00  0.00000000E+00
  0.00000000E+00  0.00000000E+00  0.00000000E+00
  0.00000000E+00  0.00000000E+00  0.00000000E+00
  0.00000000E+00  0.00000000E+00  0.00000000E+00
  0.00000000E+00  0.00000000E+00  0.00000000E+00
  0.00000000E+00  0.00000000E+00  0.00000000E+00
  0.00000000E+00  0.00000000E+00  0.00000000E+00
  0.00000000E+00  0.00000000E+00  0.00000000E+00
  0.00000000E+00  0.00000000E+00  0.00000000E+00
