2 Te4                                   
   1.00000000000000     
     8.2909189976876210   -0.2700955024023648   -0.0724709897915160
    -2.1896502668992999    3.5445350821724713    0.0506058484916256
    -0.4164835984109972    0.4579502669711504   46.2221612606022063
   Mn   Pd   Sb   Se
     1     1     4     8
Direct
  0.3333330000000032  0.3333330000000032  0.3333330000000032
  0.8333330000000032  0.3333330000000032  0.3333330000000032
  0.0070227105252772  0.0018708766710046  0.4064697998434627
  0.5105806759991310 -0.0168143190324408  0.4051176893064716
  0.1560863240008655  0.6834813190324377  0.2615493106935323
  0.6596442894747193  0.6647961233289919  0.2601972001565412
  0.3301606204128210  0.3581725594456348  0.4394827327166573
  0.8324233350500009  0.3053079299114708  0.4389605432065503
  0.3365053795871855  0.3084934405543716  0.2271832672833420
  0.8342426649500055  0.3613580700885356  0.2277054567934562
  0.0072481052352950 -0.0689622292064283  0.3019747599970779
  0.5236399241601971  0.0187318997495420  0.3038655062515629
  0.1430270758397999  0.6479351002504545  0.3628014937484410
  0.6594188947647019  0.7356292292064249  0.3646922400029260
 
  0.00000000E+00  0.00000000E+00  0.00000000E+00
  0.00000000E+00  0.00000000E+00  0.00000000E+00
  0.00000000E+00  0.00000000E+00  0.00000000E+00
  0.00000000E+00  0.00000000E+00  0.00000000E+00
  0.00000000E+00  0.00000000E+00  0.00000000E+00
  0.00000000E+00  0.00000000E+00  0.00000000E+00
  0.00000000E+00  0.00000000E+00  0.00000000E+00
  0.00000000E+00  0.00000000E+00  0.00000000E+00
  0.00000000E+00  0.00000000E+00  0.00000000E+00
  0.00000000E+00  0.00000000E+00  0.00000000E+00
  0.00000000E+00  0.00000000E+00  0.00000000E+00
  0.00000000E+00  0.00000000E+00  0.00000000E+00
  0.00000000E+00  0.00000000E+00  0.00000000E+00
  0.00000000E+00  0.00000000E+00  0.00000000E+00
