2 Te4                                   
   1.00000000000000     
     8.3361070403246949    0.0128078046797461   -0.0033670183089859
    -2.0785053321792870    3.5977655428555244    0.0002889568715912
    -0.0447543106959246   -0.0153150342762942   44.3332628612452737
   Mn   Mo   Bi   Se
     1     1     4     8
Direct
  0.3333330000000032  0.3333330000000032  0.3333330000000032
  0.8333330000000032  0.3333330000000032  0.3333330000000032
  0.0004706356101717  0.0007046382075905  0.4122267323433552
  0.4996413013094761  0.0004924633560440  0.4140946607441509
  0.1670256986905209  0.6661745366439529  0.2525723392558530
  0.6661963643898251  0.6659623617924062  0.2544402676566487
  0.3313622660093042  0.3311526501226095  0.4478777573411576
  0.8339780465916893  0.3336513213664784  0.4474855510608735
  0.3353037339907022  0.3355133498773969  0.2187882426588416
  0.8326879534083171  0.3330146786335280  0.2191804489391259
 -0.0058920801253021 -0.0053751954356760  0.3022113680514235
  0.5067766363694775  0.0070822230694009  0.3014942000142055
  0.1598903636305191  0.6595847769305957  0.3651727999857984
  0.6725590801252989  0.6720421954356728  0.3644556319485804
 
  0.00000000E+00  0.00000000E+00  0.00000000E+00
  0.00000000E+00  0.00000000E+00  0.00000000E+00
  0.00000000E+00  0.00000000E+00  0.00000000E+00
  0.00000000E+00  0.00000000E+00  0.00000000E+00
  0.00000000E+00  0.00000000E+00  0.00000000E+00
  0.00000000E+00  0.00000000E+00  0.00000000E+00
  0.00000000E+00  0.00000000E+00  0.00000000E+00
  0.00000000E+00  0.00000000E+00  0.00000000E+00
  0.00000000E+00  0.00000000E+00  0.00000000E+00
  0.00000000E+00  0.00000000E+00  0.00000000E+00
  0.00000000E+00  0.00000000E+00  0.00000000E+00
  0.00000000E+00  0.00000000E+00  0.00000000E+00
  0.00000000E+00  0.00000000E+00  0.00000000E+00
  0.00000000E+00  0.00000000E+00  0.00000000E+00
