2 Te4                                   
   1.00000000000000     
     7.7687578608293872    0.0638596963972673   -0.0134871796634196
    -1.9145239052176883    3.3162897000193250   -0.0001177426213385
    -0.0373735753371978   -0.0231031117235638   51.4104705088286664
   Mn   Co   Sb   S 
     1     1     4     8
Direct
  0.3333330000000032  0.3333330000000032  0.3333330000000032
  0.8333330000000032  0.3333330000000032  0.3333330000000032
  0.9923940396702238  0.9923654736150002  0.3956607809096329
  0.4973745340421811  0.9974087052488090  0.3972896495872892
  0.1692924659578155  0.6692582947511878  0.2693773504127147
  0.6742729603297730  0.6743015263849966  0.2710062190903710
  0.3396248341720486  0.3396262102888093  0.4247801532557479
  0.8287789630880316  0.3289048477835068  0.4242908685050766
  0.3270411658279578  0.3270397897111971  0.2418858467442515
  0.8378870369119749  0.3377611522164996  0.2423751314949227
  0.9846384524508884  0.9848202561618793  0.3074472882987664
  0.5038937452529132  0.0038320405984975  0.3067662517046778
  0.1627732547470839  0.6628349594014995  0.3599007482953261
  0.6820285475491084  0.6818467438381175  0.3592197117012375
 
  0.00000000E+00  0.00000000E+00  0.00000000E+00
  0.00000000E+00  0.00000000E+00  0.00000000E+00
  0.00000000E+00  0.00000000E+00  0.00000000E+00
  0.00000000E+00  0.00000000E+00  0.00000000E+00
  0.00000000E+00  0.00000000E+00  0.00000000E+00
  0.00000000E+00  0.00000000E+00  0.00000000E+00
  0.00000000E+00  0.00000000E+00  0.00000000E+00
  0.00000000E+00  0.00000000E+00  0.00000000E+00
  0.00000000E+00  0.00000000E+00  0.00000000E+00
  0.00000000E+00  0.00000000E+00  0.00000000E+00
  0.00000000E+00  0.00000000E+00  0.00000000E+00
  0.00000000E+00  0.00000000E+00  0.00000000E+00
  0.00000000E+00  0.00000000E+00  0.00000000E+00
  0.00000000E+00  0.00000000E+00  0.00000000E+00
