2 Te4                                   
   1.00000000000000     
     8.6398154809799301   -0.0032900840770237   -0.0075320697852426
    -2.1613795615375517    3.7436239332136041   -0.0000007024139137
    -0.0346944498018811   -0.0200415458715740   41.1538237333198893
   Mn   Tc   Sb   Te
     1     1     4     8
Direct
  0.3333330000000032  0.3333330000000032  0.3333330000000032
  0.8333330000000032  0.3333330000000032  0.3333330000000032
  0.0013684227176403  0.0013685084869887  0.4238534046880733
  0.4986892477669959  0.9986897053798036  0.4235177095311783
  0.1679777522330010  0.6679772946201932  0.2431492904688256
  0.6652985772823565  0.6652984915130081  0.2428135953119307
  0.3313094365545493  0.3313081050788784  0.4644971242814900
  0.8351524331774096  0.3351510320972345  0.4642208825851992
  0.3353565634454571  0.3353578949211280  0.2021688757185094
  0.8315135668225968  0.3315149679027719  0.2024451174148001
  0.0041648827923686  0.0041611714882416  0.2930215374518954
  0.4963082454573094  0.9963051257546114  0.2935410800073820
  0.1703587545426873  0.6703618742453854  0.3731259199926219
  0.6625021172076282  0.6625058285117551  0.3736454625481085
 
  0.00000000E+00  0.00000000E+00  0.00000000E+00
  0.00000000E+00  0.00000000E+00  0.00000000E+00
  0.00000000E+00  0.00000000E+00  0.00000000E+00
  0.00000000E+00  0.00000000E+00  0.00000000E+00
  0.00000000E+00  0.00000000E+00  0.00000000E+00
  0.00000000E+00  0.00000000E+00  0.00000000E+00
  0.00000000E+00  0.00000000E+00  0.00000000E+00
  0.00000000E+00  0.00000000E+00  0.00000000E+00
  0.00000000E+00  0.00000000E+00  0.00000000E+00
  0.00000000E+00  0.00000000E+00  0.00000000E+00
  0.00000000E+00  0.00000000E+00  0.00000000E+00
  0.00000000E+00  0.00000000E+00  0.00000000E+00
  0.00000000E+00  0.00000000E+00  0.00000000E+00
  0.00000000E+00  0.00000000E+00  0.00000000E+00
