2 Te4                                   
   1.00000000000000     
     7.6981908156929784    0.0058711638417585   -0.0291871833503369
    -1.9220083979058047    3.3287568402478489    0.0001339495072171
    -0.1118143372944504   -0.0622856642086300   51.9103160598770685
   Mn   Cd   Sn   S 
     1     1     4     8
Direct
  0.3333330000000032  0.3333330000000032  0.3333330000000032
  0.8333330000000032  0.3333330000000032  0.3333330000000032
  0.9963169304607720  0.9963744429620615  0.3980745634157625
  0.4967052874598744  0.9967800225101499  0.3978180291722757
  0.1699617125401223  0.6698869774898469  0.2688489708277282
  0.6703500695392248  0.6702925570379353  0.2685924365842414
  0.3388485557991982  0.3388522297245648  0.4247421636406055
  0.8227098140168773  0.3227263937284211  0.4249733081657410
  0.3278174442008082  0.3278137702754416  0.2419238363593938
  0.8439561859831292  0.3439396062715853  0.2416926918342583
  0.0182600928147279  0.0182729578150203  0.3039172908966116
  0.4856457820145315  0.9855790993681064  0.3053968082321279
  0.1810212179854652  0.6810879006318904  0.3612701917678759
  0.6484069071852688  0.6483940421849765  0.3627497091033923
 
  0.00000000E+00  0.00000000E+00  0.00000000E+00
  0.00000000E+00  0.00000000E+00  0.00000000E+00
  0.00000000E+00  0.00000000E+00  0.00000000E+00
  0.00000000E+00  0.00000000E+00  0.00000000E+00
  0.00000000E+00  0.00000000E+00  0.00000000E+00
  0.00000000E+00  0.00000000E+00  0.00000000E+00
  0.00000000E+00  0.00000000E+00  0.00000000E+00
  0.00000000E+00  0.00000000E+00  0.00000000E+00
  0.00000000E+00  0.00000000E+00  0.00000000E+00
  0.00000000E+00  0.00000000E+00  0.00000000E+00
  0.00000000E+00  0.00000000E+00  0.00000000E+00
  0.00000000E+00  0.00000000E+00  0.00000000E+00
  0.00000000E+00  0.00000000E+00  0.00000000E+00
  0.00000000E+00  0.00000000E+00  0.00000000E+00
