2 Te4                                   
   1.00000000000000     
     8.0572132130126040   -0.0536173935494670    0.0056657426849341
    -2.0375199175846395    3.5292835306731436   -0.0000833965860823
     0.0666360184460709    0.0373599412125332   46.9798698299633912
   Mn   Y    Sn   Se
     1     1     4     8
Direct
  0.3333330000000032  0.3333330000000032  0.3333330000000032
  0.8333330000000032  0.3333330000000032  0.3333330000000032
  0.0017111110620427  0.0017114348351183  0.4115688450217739
  0.4955504178303026  0.9955496121523000  0.4150394560236062
  0.1711165821696942  0.6711173878476968  0.2516275439763977
  0.6649558889379541  0.6649555651648785  0.2550981549782300
  0.3255233096905428  0.3255463827829604  0.4460370282582109
  0.8407561997364259  0.3407199936462347  0.4441803442201195
  0.3411426903094636  0.3411196172170460  0.2206289717417884
  0.8259098002635805  0.3259460063537717  0.2224856557798798
  0.0111227089426866  0.0111154663211493  0.2980997236138044
  0.4834553938895862  0.9834422964937409  0.2998066133416168
  0.1832116061104106  0.6832247035062559  0.3668603866583870
  0.6555442910573103  0.6555515336788474  0.3685672763861995
 
  0.00000000E+00  0.00000000E+00  0.00000000E+00
  0.00000000E+00  0.00000000E+00  0.00000000E+00
  0.00000000E+00  0.00000000E+00  0.00000000E+00
  0.00000000E+00  0.00000000E+00  0.00000000E+00
  0.00000000E+00  0.00000000E+00  0.00000000E+00
  0.00000000E+00  0.00000000E+00  0.00000000E+00
  0.00000000E+00  0.00000000E+00  0.00000000E+00
  0.00000000E+00  0.00000000E+00  0.00000000E+00
  0.00000000E+00  0.00000000E+00  0.00000000E+00
  0.00000000E+00  0.00000000E+00  0.00000000E+00
  0.00000000E+00  0.00000000E+00  0.00000000E+00
  0.00000000E+00  0.00000000E+00  0.00000000E+00
  0.00000000E+00  0.00000000E+00  0.00000000E+00
  0.00000000E+00  0.00000000E+00  0.00000000E+00
