2 Te4                                   
   1.00000000000000     
     7.7524335735879948   -0.0207264774126948    0.0078220647424419
    -1.9469856263789407    3.3824517245653833    0.0032452900465200
     0.1274470610790863    0.1121367417452020   50.8291374786127506
   Mn   Ru   Sb   S 
     1     1     4     8
Direct
  0.3333330000000032  0.3333330000000032  0.3333330000000032
  0.8333330000000032  0.3333330000000032  0.3333330000000032
  0.0005092734471080  0.0005737952848540  0.3991007206706007
  0.4993756129386737  0.0005143103860168  0.3977429383665816
  0.1672913870613233  0.6661526896139802  0.2689240616334223
  0.6661577265528890  0.6660932047151428  0.2675662793294032
  0.3314178148370407  0.3303863700307940  0.4263771523156789
  0.8323961733099750  0.3327197461386758  0.4267484569817050
  0.3352481851629657  0.3362796299692125  0.2402888476843206
  0.8342698266900315  0.3339462538613306  0.2399175430182942
  0.0005319555064549  0.0022276784976808  0.3051976835539704
  0.5001881323581846 -0.0009084228011211  0.3054752607035391
  0.1664788676418123  0.6675754228011179  0.3611917392964648
  0.6661350444935421  0.6644393215023158  0.3614693164460335
 
  0.00000000E+00  0.00000000E+00  0.00000000E+00
  0.00000000E+00  0.00000000E+00  0.00000000E+00
  0.00000000E+00  0.00000000E+00  0.00000000E+00
  0.00000000E+00  0.00000000E+00  0.00000000E+00
  0.00000000E+00  0.00000000E+00  0.00000000E+00
  0.00000000E+00  0.00000000E+00  0.00000000E+00
  0.00000000E+00  0.00000000E+00  0.00000000E+00
  0.00000000E+00  0.00000000E+00  0.00000000E+00
  0.00000000E+00  0.00000000E+00  0.00000000E+00
  0.00000000E+00  0.00000000E+00  0.00000000E+00
  0.00000000E+00  0.00000000E+00  0.00000000E+00
  0.00000000E+00  0.00000000E+00  0.00000000E+00
  0.00000000E+00  0.00000000E+00  0.00000000E+00
  0.00000000E+00  0.00000000E+00  0.00000000E+00
