2 Te4
1.0
        8.6674003601         0.0000000000         0.0000000000
       -2.1668505898         3.7530941598         0.0000000000
        0.0000000000         0.0000000000        40.9103012085
   Mn   Bi   Te
    2    4    8
Direct
     0.333333343         0.333333343         0.333333343
     0.833333373         0.333333343         0.333333343
     0.000000000         0.000000000         0.424900025
     0.500000000         0.000000000         0.424900025
     0.166666672         0.666666687         0.241766691
     0.666666687         0.666666687         0.241766691
     0.333333343         0.333333343         0.466633350
     0.833333373         0.333333343         0.466633350
     0.333333343         0.333333343         0.200033307
     0.833333373         0.333333343         0.200033307
     0.000000000         0.000000000         0.294400007
     0.500000000         0.000000000         0.294400007
     0.166666672         0.666666687         0.372266650
     0.666666687         0.666666687         0.372266650
